Geometry = GenFormat {
2  S
Tl
1      1      0.000000035925491      2.074159111485330      4.231461000000000
2      1      1.796274464074510      1.037079586855052      1.410487000000000
0.000000000000000      0.000000000000000      0.000000000000000
3.592549000000000      0.000000000000000      0.000000000000000
-1.796274499999999      3.111238698340382      0.000000000000000
0.000000000000000      0.000000000000000      5.641948000000000
}
Hamiltonian = DFTB {
  KPointsAndWeights = {
0.0 0.0 0.0 1.0
0.0833333 -2.218749999696413e-08 0.0 1.0
0.16666669999999997 -9.437499999293176e-08 0.0 1.0
0.25 -2.995999997769337e-08 0.0 1.0
0.3333333 -5.214749999142731e-08 0.0 1.0
0.4166667 -1.2433499998649497e-07 0.0 1.0
0.5 -1.465224999666893e-07 0.0 1.0
0.4444444 0.11111099570500002 0.0 1.0
0.3888889 0.22222200133000009 0.0 1.0
0.3333333 0.3333331435575 0.0 1.0
0.2916667 0.2916664585375 0.0 1.0
0.25 0.24999982351749994 0.0 1.0
0.2083333 0.20833318849750002 0.0 1.0
0.16666669999999997 0.16666650347750003 0.0 1.0
0.125 0.12499995506000001 0.0 1.0
0.0833333 0.08333332004000003 0.0 1.0
0.04166670000000001 0.04166663502 0.0 1.0
0.0 0.0 0.0 1.0
0.0 0.0 0.1666665827538 1.0
0.0 0.0 0.33333332255340004 1.0
0.0 0.0 0.4999999053072 1.0
0.0714286 -3.521749999565195e-08 0.4999999053072 1.0
0.1428571 -2.0434999984365496e-08 0.4999999053072 1.0
0.2142857 -5.5652500000754715e-08 0.4999999053072 1.0
0.2857143 -9.086999996773448e-08 0.4999999053072 1.0
0.3571429 -1.2608749998412371e-07 0.4999999053072 1.0
0.4285714 -1.1130500000150943e-07 0.4999999053072 1.0
0.5 -1.465224999666893e-07 0.4999999053072 1.0
0.45833330000000005 0.0833331884975 0.4999999053072 1.0
0.4166667 0.16666647351749994 0.4999999053072 1.0
0.375 0.2499998085375 0.4999999053072 1.0
0.3333333 0.3333331435575 0.4999999053072 1.0
0.2962963 0.296296053205 0.4999999053072 1.0
0.2592593 0.259259049455 0.4999999053072 1.0
0.2222222 0.22222209570500004 0.4999999053072 1.0
0.18518520000000002 0.18518500535250002 0.4999999053072 1.0
0.1481481 0.1481480516025 0.4999999053072 1.0
0.1111111 0.11111104785250002 0.4999999053072 1.0
0.0740741 0.07407404410249999 0.4999999053072 1.0
0.037037 0.03703700375 0.4999999053072 1.0
0.0 0.0 0.4999999053072 1.0
0.5 -1.465224999666893e-07 0.4999999053072 1.0
0.5 -1.465224999666893e-07 0.37499992898039997 1.0
0.5 -1.465224999666893e-07 0.2499999526536 1.0
0.5 -1.465224999666893e-07 0.1249999763268 1.0
0.5 -1.465224999666893e-07 0.0 1.0
0.3333333 0.3333331435575 0.0 1.0
0.3333333 0.3333331435575 0.1666665827538 1.0
0.3333333 0.3333331435575 0.33333332255340004 1.0
0.3333333 0.3333331435575 0.4999999053072 1.0
  }
  MaxAngularMomentum = {
    Tl = f
  }
  MaxSCCIterations = 1
  OrbitalResolvedSCC = No
  PolynomialRepulsive = SetForAll {
Yes
  }
  ReadInitialCharges = Yes
  SCC = Yes
  SCCTolerance = 1000000.0
  SlaterKosterFiles = Type2FileNames {
    Prefix = /home/inukai/tango/tests/1element/qe_fit_v3_Tl/
    Separator = "-"
    Suffix = ".skf"
    LowerCaseTypeName = No
  }
  OldSKInterpolation = No
  Mixer = Broyden {
    MixingParameter = 0.20000000000000001
    CachedIterations = -1
    InverseJacobiWeight = 1.0000000000000000E-002
    MinimalWeight = 1.0000000000000000
    MaximalWeight = 100000.00000000000
    WeightFactor = 1.0000000000000000E-002
  }
  DampXH = No
  EwaldParameter = 0.0000000000000000
  SpinPolarisation = {}
  ElectricField = {}
  Eigensolver = RelativelyRobust {}
  Filling = Fermi {
    Temperature = 0.0000000000000000
    IndependentKFilling = No
  }
  Charge = 0.0000000000000000
  Dispersion = {}
  ThirdOrder = No
  ThirdOrderFull = No
  Differentiation = FiniteDiff {
    Delta = 1.2207031250000000E-004
  }
  ForceEvaluation = "Traditional"
}
Options = {
  WriteResultsTag = Yes
  WriteAutotestTag = No
  WriteDetailedXML = No
  WriteDetailedOut = Yes
  RestartFrequency = 20
  RandomSeed = 0
  WriteHS = No
  WriteRealHS = No
  MinimiseMemoryUsage = No
  ShowFoldedCoords = No
}
ParserOptions = {
  IgnoreUnprocessedNodes = Yes
  ParserVersion = 5
  WriteHSDInput = Yes
  WriteXMLInput = No
  StopAfterParsing = No
}
Driver = {}
ExcitedState = {}
Analysis = {
  ProjectStates = {}
  MullikenAnalysis = Yes
  AtomResolvedEnergies = No
  WriteEigenvectors = No
  WriteBandOut = Yes
  CalculateForces = No
}
