Geometry = GenFormat { 
    <<< "geo_end.gen" 
} 
 
Hamiltonian = DFTB{ 
   KPointsAndWeights = { 
      0.0 0.0 0.0 1.0 
      0.03571431030180106 -0.03571431030180106 0.03571431030180106 1.0 
      0.0714285628685752 -0.0714285628685752 0.0714285628685752 1.0 
      0.10714287317037625 -0.10714287317037625 0.10714287317037625 1.0 
      0.1428571257371504 -0.1428571257371504 0.1428571257371504 1.0 
      0.17857143603895145 -0.17857143603895145 0.17857143603895145 1.0 
      0.21428568860572558 -0.21428568860572558 0.21428568860572558 1.0 
      0.2499999989075267 -0.2499999989075267 0.2499999989075267 1.0 
      0.2857143092093277 -0.2857143092093277 0.2857143092093277 1.0 
      0.32142856177610185 -0.32142856177610185 0.32142856177610185 1.0 
      0.3571428720779029 -0.3571428720779029 0.3571428720779029 1.0 
      0.39285712464467715 -0.39285712464467715 0.39285712464467715 1.0 
      0.42857143494647815 -0.42857143494647815 0.42857143494647815 1.0 
      0.4642856875132522 -0.4642856875132522 0.4642856875132522 1.0 
      0.4999999978150534 -0.4999999978150534 0.4999999978150534 1.0 
      0.4499999633925318 -0.4499999633925318 0.4999999978150533 1.0 
      0.4000000444400642 -0.4000000444400642 0.4999999978150534 1.0 
      0.3500000100175427 -0.3500000100175427 0.4999999978150534 1.0 
      0.2999999755950212 -0.2999999755950212 0.4999999978150533 1.0 
      0.2499999989075267 -0.2499999989075267 0.5000000555500803 1.0 
      0.2000000222200321 -0.2000000222200321 0.4999999978150534 1.0 
      0.14999998779751064 -0.14999998779751064 0.4999999978150534 1.0 
      0.0999999533749892 -0.0999999533749892 0.4999999978150534 1.0 
      0.050000034422521454 -0.050000034422521454 0.4999999978150533 1.0 
      1.547782182557844e-17 -1.547782182557844e-17 0.4999999978150534 1.0 
      -3.364973393095376e-18 3.364973393095376e-18 0.45454544206186176 1.0 
      1.3131727848936552e-17 -1.3131727848936552e-17 0.40909088630867024 1.0 
      -5.711067369737262e-18 5.711067369737262e-18 0.36363633055547867 1.0 
      -6.884114358058206e-18 6.884114358058206e-18 0.3181817748022871 1.0 
      -8.057161346379149e-18 8.057161346379149e-18 0.2727272190490955 1.0 
      5.931504946548647e-18 -5.931504946548647e-18 0.22727277876595783 1.0 
      4.6921879532837736e-18 -4.6921879532837736e-18 0.18181822301276623 1.0 
      3.552275967434795e-18 -3.552275967434795e-18 0.1363636672595747 1.0 
      2.3460939766418868e-18 -2.3460939766418868e-18 0.09090911150638312 1.0 
      1.1730469883209434e-18 -1.1730469883209434e-18 0.04545455575319156 1.0 
      0.0 0.0 0.0 1.0 
      0.01785715515090053 0.01785715515090053 0.01785715515090053 1.0 
      0.03571431030180106 0.03571431030180106 0.03571431030180106 1.0 
      0.05357140771767467 0.05357140771767467 0.05357140771767467 1.0 
      0.0714285628685752 0.0714285628685752 0.0714285628685752 1.0 
      0.08928571801947573 0.08928571801947574 0.08928571801947573 1.0 
      0.10714287317037625 0.10714287317037625 0.10714287317037625 1.0 
      0.12500002832127677 0.12500002832127677 0.12500002832127677 1.0 
      0.1428571257371504 0.1428571257371504 0.1428571257371504 1.0 
      0.16071428088805093 0.16071428088805093 0.16071428088805093 1.0 
      0.17857143603895145 0.17857143603895148 0.17857143603895145 1.0 
      0.19642859118985198 0.19642859118985198 0.19642859118985198 1.0 
      0.21428568860572558 0.21428568860572555 0.21428568860572558 1.0 
      0.2321428437566261 0.2321428437566261 0.2321428437566261 1.0 
      0.2499999989075267 0.24999999890752664 0.2499999989075267 1.0 
   } 
   MaxAngularMomentum = { 
      Bi = f 
   } 
   MaxSCCIterations = 1 
   OrbitalResolvedSCC = No 
   PolynomialRepulsive = SetForAll {Yes} 
   ReadInitialCharges = Yes 
   SCC = Yes 
   SCCTolerance = 1000000.0 
   SlaterKosterFiles = Type2FileNames{ 
      Prefix = /home/inukai/tango/tests/1element/qe_fit_v2_Bi/ 
      Separator = "-" 
      Suffix = ".skf" 
      } 
   } 
Options { 
   WriteResultsTag = Yes 
} 
ParserOptions { 
   IgnoreUnprocessedNodes = Yes  
} 
