Geometry = GenFormat { 
    <<< "geo_end.gen" 
} 
 
Hamiltonian = DFTB{ 
   KPointsAndWeights = { 
      0.0 0.0 0.0 1.0 
      0.03571428571428571 0.0 0.0 1.0 
      0.07142857142857142 0.0 0.0 1.0 
      0.10714285714285714 0.0 0.0 1.0 
      0.14285714285714285 0.0 0.0 1.0 
      0.17857142857142855 0.0 0.0 1.0 
      0.21428571428571427 0.0 0.0 1.0 
      0.25 0.0 0.0 1.0 
      0.2857142857142857 0.0 0.0 1.0 
      0.3214285714285714 0.0 0.0 1.0 
      0.3571428571428571 0.0 0.0 1.0 
      0.39285714285714285 0.0 0.0 1.0 
      0.42857142857142855 0.0 0.0 1.0 
      0.46428571428571425 0.0 0.0 1.0 
      0.5 0.0 0.0 1.0 
      0.4791666666666667 0.041666666666666664 0.0 1.0 
      0.4583333333333333 0.08333333333333333 0.0 1.0 
      0.4375 0.125 0.0 1.0 
      0.41666666666666663 0.16666666666666666 0.0 1.0 
      0.3958333333333333 0.20833333333333331 0.0 1.0 
      0.375 0.25 0.0 1.0 
      0.35416666666666663 0.29166666666666663 0.0 1.0 
      0.3333333333333333 0.3333333333333333 0.0 1.0 
      0.31481481481481477 0.31481481481481477 0.0 1.0 
      0.2962962962962963 0.2962962962962963 0.0 1.0 
      0.2777777777777778 0.2777777777777778 0.0 1.0 
      0.25925925925925924 0.25925925925925924 0.0 1.0 
      0.24074074074074073 0.24074074074074073 0.0 1.0 
      0.2222222222222222 0.2222222222222222 0.0 1.0 
      0.20370370370370372 0.20370370370370372 0.0 1.0 
      0.18518518518518517 0.18518518518518517 0.0 1.0 
      0.16666666666666666 0.16666666666666666 0.0 1.0 
      0.14814814814814814 0.14814814814814814 0.0 1.0 
      0.12962962962962965 0.12962962962962965 0.0 1.0 
      0.1111111111111111 0.1111111111111111 0.0 1.0 
      0.09259259259259259 0.09259259259259259 0.0 1.0 
      0.07407407407407413 0.07407407407407413 0.0 1.0 
      0.05555555555555558 0.05555555555555558 0.0 1.0 
      0.037037037037037035 0.037037037037037035 0.0 1.0 
      0.018518518518518545 0.018518518518518545 0.0 1.0 
      0.0 0.0 0.0 1.0 
      0.0 0.0 0.05555555555555555 1.0 
      0.0 0.0 0.1111111111111111 1.0 
      0.0 0.0 0.16666666666666666 1.0 
      0.0 0.0 0.2222222222222222 1.0 
      0.0 0.0 0.2777777777777778 1.0 
      0.0 0.0 0.3333333333333333 1.0 
      0.0 0.0 0.38888888888888884 1.0 
      0.0 0.0 0.4444444444444444 1.0 
      0.0 0.0 0.5 1.0 
   } 
   MaxAngularMomentum = { 
      Ru = d 
   } 
   MaxSCCIterations = 1 
   OrbitalResolvedSCC = No 
   PolynomialRepulsive = SetForAll {Yes} 
   ReadInitialCharges = Yes 
   SCC = Yes 
   SCCTolerance = 1000000.0 
   SlaterKosterFiles = Type2FileNames{ 
      Prefix = /home/inukai/tango/tests/1element/gpaw_fit_v2_Ru/ 
      Separator = "-" 
      Suffix = ".skf" 
      } 
   } 
Options { 
   WriteResultsTag = Yes 
} 
ParserOptions { 
   IgnoreUnprocessedNodes = Yes  
} 
