Geometry = GenFormat { 
    <<< "geo_end.gen" 
} 
 
Hamiltonian = DFTB{ 
   KPointsAndWeights = { 
      0.5 0.25 0.75 1.0 
      0.5 0.2777777777777778 0.7222222222222222 1.0 
      0.5 0.3055555555555556 0.6944444444444444 1.0 
      0.5 0.3333333333333333 0.6666666666666666 1.0 
      0.5 0.3611111111111111 0.6388888888888888 1.0 
      0.5 0.3888888888888889 0.6111111111111112 1.0 
      0.5 0.41666666666666663 0.5833333333333334 1.0 
      0.5 0.4444444444444444 0.5555555555555556 1.0 
      0.5 0.4722222222222222 0.5277777777777778 1.0 
      0.5 0.5 0.5 1.0 
      0.4583333333333333 0.4583333333333333 0.4583333333333333 1.0 
      0.4166666666666667 0.4166666666666667 0.4166666666666667 1.0 
      0.375 0.375 0.375 1.0 
      0.33333333333333337 0.33333333333333337 0.33333333333333337 1.0 
      0.2916666666666667 0.2916666666666667 0.2916666666666667 1.0 
      0.25 0.25 0.25 1.0 
      0.20833333333333337 0.20833333333333337 0.20833333333333337 1.0 
      0.16666666666666669 0.16666666666666669 0.16666666666666669 1.0 
      0.125 0.125 0.125 1.0 
      0.08333333333333337 0.08333333333333337 0.08333333333333337 1.0 
      0.041666666666666685 0.041666666666666685 0.041666666666666685 1.0 
      0.0 0.0 0.0 1.0 
      0.03333333333333333 0.0 0.03333333333333333 1.0 
      0.06666666666666667 0.0 0.06666666666666667 1.0 
      0.1 0.0 0.1 1.0 
      0.13333333333333333 0.0 0.13333333333333333 1.0 
      0.16666666666666666 0.0 0.16666666666666666 1.0 
      0.2 0.0 0.2 1.0 
      0.23333333333333334 0.0 0.23333333333333334 1.0 
      0.26666666666666666 0.0 0.26666666666666666 1.0 
      0.3 0.0 0.3 1.0 
      0.3333333333333333 0.0 0.3333333333333333 1.0 
      0.36666666666666664 0.0 0.36666666666666664 1.0 
      0.4 0.0 0.4 1.0 
      0.43333333333333335 0.0 0.43333333333333335 1.0 
      0.4666666666666667 0.0 0.4666666666666667 1.0 
      0.5 0.0 0.5 1.0 
      0.5 0.03571428571428571 0.5357142857142857 1.0 
      0.5 0.07142857142857142 0.5714285714285714 1.0 
      0.5 0.10714285714285714 0.6071428571428571 1.0 
      0.5 0.14285714285714285 0.6428571428571428 1.0 
      0.5 0.17857142857142855 0.6785714285714286 1.0 
      0.5 0.21428571428571427 0.7142857142857143 1.0 
      0.5 0.25 0.75 1.0 
      0.4791666666666667 0.2708333333333333 0.75 1.0 
      0.4583333333333333 0.2916666666666667 0.75 1.0 
      0.4375 0.3125 0.75 1.0 
      0.4166666666666667 0.3333333333333333 0.75 1.0 
      0.39583333333333337 0.35416666666666663 0.75 1.0 
      0.375 0.375 0.75 1.0 
   } 
   MaxAngularMomentum = { 
      Al = d 
   } 
   MaxSCCIterations = 1 
   OrbitalResolvedSCC = No 
   PolynomialRepulsive = SetForAll {Yes} 
   ReadInitialCharges = Yes 
   SCC = Yes 
   SCCTolerance = 1000000.0 
   SlaterKosterFiles = Type2FileNames{ 
      Prefix = /home/inukai/tango/tests/1element/gpaw_fit_v2_Al/ 
      Separator = "-" 
      Suffix = ".skf" 
      } 
   } 
Options { 
   WriteResultsTag = Yes 
} 
ParserOptions { 
   IgnoreUnprocessedNodes = Yes  
} 
