Geometry = GenFormat {
1  S
Pd
1      1      0.000000000000000      0.000000000000000      0.000000000000000
0.000000000000000      0.000000000000000      0.000000000000000
0.000000000000000      1.945500000000000      1.945500000000000
1.945500000000000      0.000000000000000      1.945500000000000
1.945500000000000      1.945500000000000      0.000000000000000
}
Hamiltonian = DFTB {
  KPointsAndWeights = {
0.5000000133031198 0.2500000066515599 0.7500000199546798 1.0
0.5000000133031198 0.27777777731165787 0.7222222492945818 1.0
0.5000000133031197 0.3055555479717558 0.6944444786344837 1.0
0.5000000133031198 0.33333331863185384 0.6666667079743859 1.0
0.4999999425924417 0.3611110892919518 0.6388888666036098 1.0
0.5000000133031198 0.3888889306627279 0.6111110959435118 1.0
0.5000000133031198 0.41666670132282585 0.5833333252834138 1.0
0.5000000133031198 0.4444444719829239 0.5555555546233157 1.0
0.5000000133031197 0.4722222426430218 0.5277777839632178 1.0
0.5000000133031198 0.5000000133031198 0.5000000133031198 1.0
0.45833332195763377 0.45833332195763377 0.45833332195763377 1.0
0.41666663061214776 0.41666663061214776 0.41666663061214776 1.0
0.3749999392666617 0.3749999392666617 0.3749999392666617 1.0
0.3333333893425319 0.3333333893425319 0.3333333893425319 1.0
0.2916666979970459 0.2916666979970459 0.2916666979970459 1.0
0.2500000066515599 0.2500000066515599 0.2500000066515599 1.0
0.20833331530607388 0.20833331530607388 0.20833331530607388 1.0
0.16666662396058787 0.16666662396058787 0.16666662396058787 1.0
0.12499993261510184 0.12499993261510184 0.12499993261510184 1.0
0.08333338269097205 0.08333338269097205 0.08333338269097205 1.0
0.04166669134548603 0.04166669134548603 0.04166669134548603 1.0
0.0 0.0 0.0 1.0
0.033333367218524444 0.0 0.033333367218524444 1.0
0.06666666372637077 0.0 0.06666666372637077 1.0
0.10000003094489521 0.0 0.10000003094489521 1.0
0.13333332745274154 0.0 0.13333332745274154 1.0
0.16666669467126596 0.0 0.16666669467126596 1.0
0.1999999911791123 0.0 0.1999999911791123 1.0
0.23333335839763672 0.0 0.23333335839763672 1.0
0.2666666549054831 0.0 0.2666666549054831 1.0
0.3000000221240075 0.0 0.3000000221240075 1.0
0.33333331863185384 0.0 0.33333331863185384 1.0
0.3666666858503783 0.0 0.3666666858503783 1.0
0.3999999823582246 0.0 0.3999999823582246 1.0
0.43333334957674907 0.0 0.43333334957674907 1.0
0.46666664608459535 0.0 0.46666664608459535 1.0
0.5000000133031198 0.0 0.5000000133031198 1.0
0.5000000133031198 0.035714266461457665 0.5357142797645775 1.0
0.5000000133031198 0.07142860363359345 0.5714286169367133 1.0
0.5000000133031198 0.10714287009505111 0.6071428833981709 1.0
0.5000000133031198 0.14285713655650878 0.6428571498596286 1.0
0.5000000133031198 0.17857140301796645 0.6785714163210863 1.0
0.5000000133031198 0.21428574019010221 0.7142857534932221 1.0
0.5000000133031198 0.2500000066515599 0.7500000199546798 1.0
0.4791666676303768 0.2708333523243029 0.7500000199546797 1.0
0.45833332195763377 0.2916666979970459 0.7500000199546798 1.0
0.4374999762848908 0.3124999729591108 0.7499999492440016 1.0
0.4166667013228259 0.33333331863185384 0.7500000199546798 1.0
0.39583335565008293 0.3541666643045968 0.7500000199546798 1.0
0.37500000997733984 0.37500000997733984 0.7500000199546797 1.0
  }
  MaxAngularMomentum = {
    Pd = d
  }
  MaxSCCIterations = 1
  OrbitalResolvedSCC = No
  PolynomialRepulsive = SetForAll {
Yes
  }
  ReadInitialCharges = Yes
  SCC = Yes
  SCCTolerance = 1000000.0
  SlaterKosterFiles = Type2FileNames {
    Prefix = /home/inukai/tango/tests/1element/qe_fit_v2_Pd/
    Separator = "-"
    Suffix = ".skf"
    LowerCaseTypeName = No
  }
  OldSKInterpolation = No
  Mixer = Broyden {
    MixingParameter = 0.20000000000000001
    CachedIterations = -1
    InverseJacobiWeight = 1.0000000000000000E-002
    MinimalWeight = 1.0000000000000000
    MaximalWeight = 100000.00000000000
    WeightFactor = 1.0000000000000000E-002
  }
  DampXH = No
  EwaldParameter = 0.0000000000000000
  SpinPolarisation = {}
  ElectricField = {}
  Eigensolver = RelativelyRobust {}
  Filling = Fermi {
    Temperature = 0.0000000000000000
    IndependentKFilling = No
  }
  Charge = 0.0000000000000000
  Dispersion = {}
  ThirdOrder = No
  ThirdOrderFull = No
  Differentiation = FiniteDiff {
    Delta = 1.2207031250000000E-004
  }
  ForceEvaluation = "Traditional"
}
Options = {
  WriteResultsTag = Yes
  WriteAutotestTag = No
  WriteDetailedXML = No
  WriteDetailedOut = Yes
  RestartFrequency = 20
  RandomSeed = 0
  WriteHS = No
  WriteRealHS = No
  MinimiseMemoryUsage = No
  ShowFoldedCoords = No
}
ParserOptions = {
  IgnoreUnprocessedNodes = Yes
  ParserVersion = 5
  WriteHSDInput = Yes
  WriteXMLInput = No
  StopAfterParsing = No
}
Driver = {}
ExcitedState = {}
Analysis = {
  ProjectStates = {}
  MullikenAnalysis = Yes
  AtomResolvedEnergies = No
  WriteEigenvectors = No
  WriteBandOut = Yes
  CalculateForces = No
}
