Geometry = GenFormat {
8  S
F
1      1      1.995388791730953      4.085868761837155      1.217171354400000
2      1      5.393273769217710      6.229724025525429      1.217171354400000
3      1      4.984752248901489      2.791193096404568      2.467876645600000
4      1      1.586867271414732      0.647337832716294      2.467876645600000
5      1      5.076937791730953      4.085868761837155      3.059695354400000
6      1      2.311724769217710      6.229724025525429      3.059695354400000
7      1      1.903203248901489      2.791193096404568      0.625352645600000
8      1      4.668416271414732      0.647337832716294      0.625352645600000
0.000000000000000      0.000000000000000      0.000000000000000
6.163098000000000      0.000000000000000      0.000000000000000
0.817043040632442      6.877061858241722      0.000000000000000
0.000000000000000      0.000000000000000      3.685048000000000
}
Hamiltonian = DFTB {
  KPointsAndWeights = {
0.0 0.0 0.0 1.0
0.0 0.16666666666666666 0.0 1.0
0.0 0.3333333333333333 0.0 1.0
0.0 0.5 0.0 1.0
0.15127373851221326 0.5200543874658258 0.0 1.0
0.3025474770244265 0.5401087749316514 0.0 1.0
0.4538212155366398 0.5601631623974772 0.0 1.0
0.5 0.5 0.0 1.0
0.5 0.5 0.07142857142857142 1.0
0.5 0.5 0.14285714285714285 1.0
0.5 0.5 0.21428571428571427 1.0
0.5 0.5 0.2857142857142857 1.0
0.5 0.5 0.3571428571428571 1.0
0.5 0.5 0.42857142857142855 1.0
0.5 0.5 0.5 1.0
0.5461787844633602 0.4398368376025228 0.5 1.0
0.5307858563089068 0.2932245584016819 0.5 1.0
0.5153929281544534 0.14661227920084097 0.5 1.0
0.5 0.0 0.5 1.0
0.5 0.0 0.4375 1.0
0.5 0.0 0.375 1.0
0.5 0.0 0.3125 1.0
0.5 0.0 0.25 1.0
0.5 0.0 0.1875 1.0
0.5 0.0 0.125 1.0
0.5 0.0 0.0625 1.0
0.5 0.0 0.0 1.0
0.5153929281544534 0.1466122792008409 0.0 1.0
0.5307858563089068 0.2932245584016818 0.0 1.0
0.5461787844633602 0.4398368376025228 0.0 1.0
0.4538212155366398 0.5601631623974772 0.5 1.0
0.34036591165247987 0.545122371798108 0.5 1.0
0.2269106077683199 0.5300815811987386 0.5 1.0
0.11345530388415992 0.5150407905993692 0.5 1.0
0.0 0.5 0.5 1.0
0.0 0.4 0.5 1.0
0.0 0.3 0.5 1.0
0.0 0.19999999999999996 0.5 1.0
0.0 0.09999999999999998 0.5 1.0
0.0 0.0 0.5 1.0
0.0 0.5 0.0 1.0
0.0 0.5 0.05555555555555555 1.0
0.0 0.5 0.1111111111111111 1.0
0.0 0.5 0.16666666666666666 1.0
0.0 0.5 0.2222222222222222 1.0
0.0 0.5 0.2777777777777778 1.0
0.0 0.5 0.3333333333333333 1.0
0.0 0.5 0.38888888888888884 1.0
0.0 0.5 0.4444444444444444 1.0
0.0 0.5 0.5 1.0
  }
  MaxAngularMomentum = {
    F = p
  }
  MaxSCCIterations = 1
  OrbitalResolvedSCC = No
  PolynomialRepulsive = SetForAll {
Yes
  }
  ReadInitialCharges = Yes
  SCC = Yes
  SCCTolerance = 1000000.0
  SlaterKosterFiles = Type2FileNames {
    Prefix = /home/inukai/tango/tests/1element/gpaw_fit_v3_F/
    Separator = "-"
    Suffix = ".skf"
    LowerCaseTypeName = No
  }
  OldSKInterpolation = No
  Mixer = Broyden {
    MixingParameter = 0.20000000000000001
    CachedIterations = -1
    InverseJacobiWeight = 1.0000000000000000E-002
    MinimalWeight = 1.0000000000000000
    MaximalWeight = 100000.00000000000
    WeightFactor = 1.0000000000000000E-002
  }
  DampXH = No
  EwaldParameter = 0.0000000000000000
  SpinPolarisation = {}
  ElectricField = {}
  Eigensolver = RelativelyRobust {}
  Filling = Fermi {
    Temperature = 0.0000000000000000
    IndependentKFilling = No
  }
  Charge = 0.0000000000000000
  Dispersion = {}
  ThirdOrder = No
  ThirdOrderFull = No
  Differentiation = FiniteDiff {
    Delta = 1.2207031250000000E-004
  }
  ForceEvaluation = "Traditional"
}
Options = {
  WriteResultsTag = Yes
  WriteAutotestTag = No
  WriteDetailedXML = No
  WriteDetailedOut = Yes
  RestartFrequency = 20
  RandomSeed = 0
  WriteHS = No
  WriteRealHS = No
  MinimiseMemoryUsage = No
  ShowFoldedCoords = No
}
ParserOptions = {
  IgnoreUnprocessedNodes = Yes
  ParserVersion = 5
  WriteHSDInput = Yes
  WriteXMLInput = No
  StopAfterParsing = No
}
Driver = {}
ExcitedState = {}
Analysis = {
  ProjectStates = {}
  MullikenAnalysis = Yes
  AtomResolvedEnergies = No
  WriteEigenvectors = No
  WriteBandOut = Yes
  CalculateForces = No
}
