Geometry = GenFormat { 
    <<< "geo_end.gen" 
} 
 
Hamiltonian = DFTB{ 
   KPointsAndWeights = { 
      0.0 0.0 0.0 1.0 
      0.0 0.16666666666666666 0.0 1.0 
      0.0 0.3333333333333333 0.0 1.0 
      0.0 0.5 0.0 1.0 
      0.15127373851221326 0.5200543874658258 0.0 1.0 
      0.3025474770244265 0.5401087749316514 0.0 1.0 
      0.4538212155366398 0.5601631623974772 0.0 1.0 
      0.5 0.5 0.0 1.0 
      0.5 0.5 0.07142857142857142 1.0 
      0.5 0.5 0.14285714285714285 1.0 
      0.5 0.5 0.21428571428571427 1.0 
      0.5 0.5 0.2857142857142857 1.0 
      0.5 0.5 0.3571428571428571 1.0 
      0.5 0.5 0.42857142857142855 1.0 
      0.5 0.5 0.5 1.0 
      0.5461787844633602 0.4398368376025228 0.5 1.0 
      0.5307858563089068 0.2932245584016819 0.5 1.0 
      0.5153929281544534 0.14661227920084097 0.5 1.0 
      0.5 0.0 0.5 1.0 
      0.5 0.0 0.4375 1.0 
      0.5 0.0 0.375 1.0 
      0.5 0.0 0.3125 1.0 
      0.5 0.0 0.25 1.0 
      0.5 0.0 0.1875 1.0 
      0.5 0.0 0.125 1.0 
      0.5 0.0 0.0625 1.0 
      0.5 0.0 0.0 1.0 
      0.5153929281544534 0.1466122792008409 0.0 1.0 
      0.5307858563089068 0.2932245584016818 0.0 1.0 
      0.5461787844633602 0.4398368376025228 0.0 1.0 
      0.4538212155366398 0.5601631623974772 0.5 1.0 
      0.34036591165247987 0.545122371798108 0.5 1.0 
      0.2269106077683199 0.5300815811987386 0.5 1.0 
      0.11345530388415992 0.5150407905993692 0.5 1.0 
      0.0 0.5 0.5 1.0 
      0.0 0.4 0.5 1.0 
      0.0 0.3 0.5 1.0 
      0.0 0.19999999999999996 0.5 1.0 
      0.0 0.09999999999999998 0.5 1.0 
      0.0 0.0 0.5 1.0 
      0.0 0.5 0.0 1.0 
      0.0 0.5 0.05555555555555555 1.0 
      0.0 0.5 0.1111111111111111 1.0 
      0.0 0.5 0.16666666666666666 1.0 
      0.0 0.5 0.2222222222222222 1.0 
      0.0 0.5 0.2777777777777778 1.0 
      0.0 0.5 0.3333333333333333 1.0 
      0.0 0.5 0.38888888888888884 1.0 
      0.0 0.5 0.4444444444444444 1.0 
      0.0 0.5 0.5 1.0 
   } 
   MaxAngularMomentum = { 
      F = p 
   } 
   MaxSCCIterations = 1 
   OrbitalResolvedSCC = No 
   PolynomialRepulsive = SetForAll {Yes} 
   ReadInitialCharges = Yes 
   SCC = Yes 
   SCCTolerance = 1000000.0 
   SlaterKosterFiles = Type2FileNames{ 
      Prefix = /home/inukai/tango/tests/1element/gpaw_fit_v3_F/ 
      Separator = "-" 
      Suffix = ".skf" 
      } 
   } 
Options { 
   WriteResultsTag = Yes 
} 
ParserOptions { 
   IgnoreUnprocessedNodes = Yes  
} 
