Geometry = GenFormat {
3  S
Te
1      1      1.215594381480000      0.000000000000000      1.987819313455140
2      1     -0.607797190740000      1.052735615059312      3.975638646788473
3      1      1.646141809260001      2.851201250101676      5.963457980121807
0.000000000000000      0.000000000000000      0.000000000000000
4.507878000000000      0.000000000000000      0.000000000000000
-2.253938999999999      3.903936865160988      0.000000000000000
0.000000000000000      0.000000000000000      5.963458000000000
}
Hamiltonian = DFTB {
  KPointsAndWeights = {
0.0 0.0 0.0 1.0
0.0833333 -2.2187499998847383e-08 0.0 1.0
0.16666669999999997 -9.437499999345702e-08 0.0 1.0
0.25 -2.995999998983671e-08 0.0 1.0
0.3333333 -5.214749996989258e-08 0.0 1.0
0.4166667 -1.2433500001092012e-07 0.0 1.0
0.5 -1.4652249995563647e-07 0.0 1.0
0.4444444 0.11111099570500003 0.0 1.0
0.3888889 0.22222200133 0.0 1.0
0.3333333 0.3333331435575 0.0 1.0
0.2857143 0.2857141139925001 0.0 1.0
0.23809520000000003 0.23809504782499993 0.0 1.0
0.19047619999999998 0.19047601826 0.0 1.0
0.1428571 0.14285703869500002 0.0 1.0
0.09523809999999999 0.09523800913 0.0 1.0
0.047619 0.047619029565000005 0.0 1.0
0.0 0.0 0.0 1.0
0.0 0.0 0.1250000083712 1.0
0.0 0.0 0.2500000167424 1.0
0.0 0.0 0.37500002511360003 1.0
0.0 0.0 0.5000000334848 1.0
0.0833333 -2.2187499998847383e-08 0.5000000334848 1.0
0.16666669999999997 -9.437499999345702e-08 0.5000000334848 1.0
0.25 -2.995999998983671e-08 0.5000000334848 1.0
0.3333333 -5.214749996989258e-08 0.5000000334848 1.0
0.4166667 -1.2433500001092012e-07 0.5000000334848 1.0
0.5 -1.4652249995563647e-07 0.5000000334848 1.0
0.4583333 0.08333318849749996 0.5000000334848 1.0
0.4166667 0.16666647351749994 0.5000000334848 1.0
0.375 0.2499998085375 0.5000000334848 1.0
0.3333333 0.3333331435575 0.5000000334848 1.0
0.2916667 0.2916664585375 0.5000000334848 1.0
0.25 0.24999982351749994 0.5000000334848 1.0
0.2083333 0.2083331884975 0.5000000334848 1.0
0.16666669999999997 0.16666650347750003 0.5000000334848 1.0
0.125 0.12499995505999997 0.5000000334848 1.0
0.0833333 0.08333332004000002 0.5000000334848 1.0
0.04166670000000001 0.04166663502 0.5000000334848 1.0
0.0 0.0 0.5000000334848 1.0
0.5 -1.4652249995563647e-07 0.5000000334848 1.0
0.5 -1.4652249995563647e-07 0.37500002511360003 1.0
0.5 -1.4652249995563647e-07 0.2500000167424 1.0
0.5 -1.4652249995563647e-07 0.1250000083712 1.0
0.5 -1.4652249995563647e-07 0.0 1.0
0.3333333 0.3333331435575 0.0 1.0
0.3333333 0.3333331435575 0.1000000331549 1.0
0.3333333 0.3333331435575 0.2000000663098 1.0
0.3333333 0.3333331435575 0.299999967175 1.0
0.3333333 0.3333331435575 0.4000000003298999 1.0
0.3333333 0.3333331435575 0.5000000334848 1.0
  }
  MaxAngularMomentum = {
    Te = d
  }
  MaxSCCIterations = 1
  OrbitalResolvedSCC = No
  PolynomialRepulsive = SetForAll {
Yes
  }
  ReadInitialCharges = Yes
  SCC = Yes
  SCCTolerance = 1000000.0
  SlaterKosterFiles = Type2FileNames {
    Prefix = /home/inukai/tango/tests/1element/qe_fit_v3_Te/
    Separator = "-"
    Suffix = ".skf"
    LowerCaseTypeName = No
  }
  OldSKInterpolation = No
  Mixer = Broyden {
    MixingParameter = 0.20000000000000001
    CachedIterations = -1
    InverseJacobiWeight = 1.0000000000000000E-002
    MinimalWeight = 1.0000000000000000
    MaximalWeight = 100000.00000000000
    WeightFactor = 1.0000000000000000E-002
  }
  DampXH = No
  EwaldParameter = 0.0000000000000000
  SpinPolarisation = {}
  ElectricField = {}
  Eigensolver = RelativelyRobust {}
  Filling = Fermi {
    Temperature = 0.0000000000000000
    IndependentKFilling = No
  }
  Charge = 0.0000000000000000
  Dispersion = {}
  ThirdOrder = No
  ThirdOrderFull = No
  Differentiation = FiniteDiff {
    Delta = 1.2207031250000000E-004
  }
  ForceEvaluation = "Traditional"
}
Options = {
  WriteResultsTag = Yes
  WriteAutotestTag = No
  WriteDetailedXML = No
  WriteDetailedOut = Yes
  RestartFrequency = 20
  RandomSeed = 0
  WriteHS = No
  WriteRealHS = No
  MinimiseMemoryUsage = No
  ShowFoldedCoords = No
}
ParserOptions = {
  IgnoreUnprocessedNodes = Yes
  ParserVersion = 5
  WriteHSDInput = Yes
  WriteXMLInput = No
  StopAfterParsing = No
}
Driver = {}
ExcitedState = {}
Analysis = {
  ProjectStates = {}
  MullikenAnalysis = Yes
  AtomResolvedEnergies = No
  WriteEigenvectors = No
  WriteBandOut = Yes
  CalculateForces = No
}
