&CONTROL
   calculation      = 'bands'
   verbosity        = 'high'
   restart_mode     = 'restart'
   tstress          = .true.
   tprnfor          = .true.
   disk_io          = 'low'
/
&SYSTEM
   ecutwfc          = 40.0
   ecutrho          = 200.0
   occupations      = 'smearing'
   degauss          = 0.001
   smearing         = 'gaussian'
   input_dft        = 'PBE'
   ntyp             = 1
   nat              = 3
   ibrav            = 0
/
&ELECTRONS
   electron_maxstep = 250
   scf_must_converge = .false.
   conv_thr         = 1e-07
   mixing_beta      = 0.1
/
&IONS
/
&CELL
/

ATOMIC_SPECIES
Te 127.6 te_pbe_v1.uspp.F.UPF

K_POINTS crystal_b
50
0.00000000000000 0.00000000000000 0.00000000000000 0
0.08333333333333 0.00000000000000 0.00000000000000 0
0.16666666666667 0.00000000000000 0.00000000000000 0
0.25000000000000 0.00000000000000 0.00000000000000 0
0.33333333333333 0.00000000000000 0.00000000000000 0
0.41666666666667 0.00000000000000 0.00000000000000 0
0.50000000000000 0.00000000000000 0.00000000000000 0
0.44444444444444 0.11111111111111 0.00000000000000 0
0.38888888888889 0.22222222222222 0.00000000000000 0
0.33333333333333 0.33333333333333 0.00000000000000 0
0.28571428571429 0.28571428571429 0.00000000000000 0
0.23809523809524 0.23809523809524 0.00000000000000 0
0.19047619047619 0.19047619047619 0.00000000000000 0
0.14285714285714 0.14285714285714 0.00000000000000 0
0.09523809523810 0.09523809523810 0.00000000000000 0
0.04761904761905 0.04761904761905 0.00000000000000 0
0.00000000000000 0.00000000000000 0.00000000000000 0
0.00000000000000 0.00000000000000 0.12500000000000 0
0.00000000000000 0.00000000000000 0.25000000000000 0
0.00000000000000 0.00000000000000 0.37500000000000 0
0.00000000000000 0.00000000000000 0.50000000000000 0
0.08333333333333 0.00000000000000 0.50000000000000 0
0.16666666666667 0.00000000000000 0.50000000000000 0
0.25000000000000 0.00000000000000 0.50000000000000 0
0.33333333333333 0.00000000000000 0.50000000000000 0
0.41666666666667 0.00000000000000 0.50000000000000 0
0.50000000000000 0.00000000000000 0.50000000000000 0
0.45833333333333 0.08333333333333 0.50000000000000 0
0.41666666666667 0.16666666666667 0.50000000000000 0
0.37500000000000 0.25000000000000 0.50000000000000 0
0.33333333333333 0.33333333333333 0.50000000000000 0
0.29166666666667 0.29166666666667 0.50000000000000 0
0.25000000000000 0.25000000000000 0.50000000000000 0
0.20833333333333 0.20833333333333 0.50000000000000 0
0.16666666666667 0.16666666666667 0.50000000000000 0
0.12500000000000 0.12500000000000 0.50000000000000 0
0.08333333333333 0.08333333333333 0.50000000000000 0
0.04166666666667 0.04166666666667 0.50000000000000 0
0.00000000000000 0.00000000000000 0.50000000000000 0
0.50000000000000 0.00000000000000 0.50000000000000 0
0.50000000000000 0.00000000000000 0.37500000000000 0
0.50000000000000 0.00000000000000 0.25000000000000 0
0.50000000000000 0.00000000000000 0.12500000000000 0
0.50000000000000 0.00000000000000 0.00000000000000 0
0.33333333333333 0.33333333333333 0.00000000000000 0
0.33333333333333 0.33333333333333 0.10000000000000 0
0.33333333333333 0.33333333333333 0.20000000000000 0
0.33333333333333 0.33333333333333 0.30000000000000 0
0.33333333333333 0.33333333333333 0.40000000000000 0
0.33333333333333 0.33333333333333 0.50000000000000 0

CELL_PARAMETERS angstrom
4.50787800000000 0.00000000000000 0.00000000000000
-2.25393900000000 3.90393686516099 0.00000000000000
0.00000000000000 0.00000000000000 5.96345800000000

ATOMIC_POSITIONS angstrom
Te 1.2155943815 0.0000000000 1.9878193135 
Te -0.6077971907 1.0527356151 3.9756386468 
Te 1.6461418093 2.8512012501 5.9634579801 

