Geometry = GenFormat { 
    <<< "geo_end.gen" 
} 
 
Hamiltonian = DFTB{ 
   KPointsAndWeights = { 
      0.0 0.0 0.0 1.0 
      0.1 0.0 0.0 1.0 
      0.2 0.0 0.0 1.0 
      0.30000000000000004 0.0 0.0 1.0 
      0.4 0.0 0.0 1.0 
      0.5 0.0 0.0 1.0 
      0.5526892737768295 -0.1245768305224907 0.0 1.0 
      0.6053785475536592 -0.2491536610449814 0.0 1.0 
      0.6580678213304887 -0.3737304915674721 0.0 1.0 
      0.5790339106652443 -0.4368652457837361 0.0 1.0 
      0.5 -0.5 0.0 1.0 
      0.5 -0.5 0.1 1.0 
      0.5 -0.5 0.2 1.0 
      0.5 -0.5 0.30000000000000004 1.0 
      0.5 -0.5 0.4 1.0 
      0.5 -0.5 0.5 1.0 
      0.42096608933475566 -0.5631347542162639 0.5 1.0 
      0.34193217866951137 -0.6262695084325278 0.5 1.0 
      0.22795478577967426 -0.5841796722883519 0.5 1.0 
      0.11397739288983713 -0.5420898361441759 0.5 1.0 
      0.0 -0.5 0.5 1.0 
      0.0 -0.5 0.4166666666666667 1.0 
      0.0 -0.5 0.33333333333333337 1.0 
      0.0 -0.5 0.25 1.0 
      0.0 -0.5 0.16666666666666669 1.0 
      0.0 -0.5 0.08333333333333337 1.0 
      0.0 -0.5 0.0 1.0 
      0.08548304466737784 -0.531567377108132 0.0 1.0 
      0.17096608933475568 -0.5631347542162639 0.0 1.0 
      0.25644913400213354 -0.5947021313243959 0.0 1.0 
      0.34193217866951137 -0.6262695084325278 0.0 1.0 
      0.6580678213304887 -0.3737304915674721 0.5 1.0 
      0.6185508659978665 -0.2802978686756041 0.5 1.0 
      0.5790339106652443 -0.18686524578373606 0.5 1.0 
      0.5395169553326222 -0.09343262289186804 0.5 1.0 
      0.5 0.0 0.5 1.0 
      0.4285714285714286 0.0 0.5 1.0 
      0.35714285714285715 0.0 0.5 1.0 
      0.2857142857142857 0.0 0.5 1.0 
      0.2142857142857143 0.0 0.5 1.0 
      0.1428571428571429 0.0 0.5 1.0 
      0.07142857142857145 0.0 0.5 1.0 
      0.0 0.0 0.5 1.0 
      0.5 0.0 0.0 1.0 
      0.5 0.0 0.08333333333333333 1.0 
      0.5 0.0 0.16666666666666666 1.0 
      0.5 0.0 0.25 1.0 
      0.5 0.0 0.3333333333333333 1.0 
      0.5 0.0 0.41666666666666663 1.0 
      0.5 0.0 0.5 1.0 
   } 
   MaxAngularMomentum = { 
      O = p 
   } 
   MaxSCCIterations = 1 
   OrbitalResolvedSCC = No 
   PolynomialRepulsive = SetForAll {Yes} 
   ReadInitialCharges = Yes 
   SCC = Yes 
   SCCTolerance = 1000000.0 
   SlaterKosterFiles = Type2FileNames{ 
      Prefix = /home/inukai/tango/tests/1element/gpaw_fit_v3_O/ 
      Separator = "-" 
      Suffix = ".skf" 
      } 
   } 
Options { 
   WriteResultsTag = Yes 
} 
ParserOptions { 
   IgnoreUnprocessedNodes = Yes  
} 
