Geometry = GenFormat { 
    <<< "geo_end.gen" 
} 
 
Hamiltonian = DFTB{ 
   KPointsAndWeights = { 
      0.0 0.0 0.0 1.0 
      0.03571431030180106 -0.03571431030180106 0.03571431030180106 1.0 
      0.0714285628685752 -0.0714285628685752 0.0714285628685752 1.0 
      0.10714287317037627 -0.10714287317037627 0.10714287317037627 1.0 
      0.1428571257371504 -0.1428571257371504 0.1428571257371504 1.0 
      0.17857143603895148 -0.17857143603895148 0.17857143603895148 1.0 
      0.21428568860572558 -0.21428568860572558 0.21428568860572558 1.0 
      0.24999999890752664 -0.24999999890752664 0.24999999890752664 1.0 
      0.2857143092093278 -0.2857143092093278 0.2857143092093278 1.0 
      0.32142856177610185 -0.32142856177610185 0.32142856177610185 1.0 
      0.35714287207790296 -0.35714287207790296 0.35714287207790296 1.0 
      0.39285712464467715 -0.39285712464467715 0.39285712464467715 1.0 
      0.42857143494647815 -0.42857143494647815 0.42857143494647815 1.0 
      0.4642856875132523 -0.4642856875132523 0.4642856875132523 1.0 
      0.4999999978150533 -0.4999999978150533 0.4999999978150533 1.0 
      0.4499999633925319 -0.4499999633925319 0.4999999978150534 1.0 
      0.4000000444400642 -0.4000000444400642 0.4999999978150534 1.0 
      0.35000001001754283 -0.35000001001754283 0.49999999781505344 1.0 
      0.2999999755950212 -0.2999999755950212 0.4999999978150533 1.0 
      0.2499999989075267 -0.2499999989075267 0.5000000555500803 1.0 
      0.2000000222200321 -0.2000000222200321 0.4999999978150534 1.0 
      0.14999998779751067 -0.14999998779751067 0.49999999781505344 1.0 
      0.09999995337498913 -0.09999995337498913 0.4999999978150534 1.0 
      0.05000003442252148 -0.05000003442252148 0.4999999978150534 1.0 
      -1.523251356464642e-17 1.523251356464642e-17 0.4999999978150533 1.0 
      -5.0552147674148895e-18 5.0552147674148895e-18 0.45454544206186176 1.0 
      1.648374318312169e-17 -1.648374318312169e-17 0.4090908863086703 1.0 
      3.937723673743116e-18 -3.937723673743116e-18 0.36363633055547867 1.0 
      7.806933393926824e-18 -7.806933393926824e-18 0.31818177480228715 1.0 
      6.622573037853301e-18 -6.622573037853301e-18 0.2727272190490956 1.0 
      7.176320781158204e-18 -7.176320781158204e-18 0.22727277876595783 1.0 
      -5.9969582286156646e-18 5.9969582286156646e-18 0.18181822301276623 1.0 
      4.180340568615864e-18 -4.180340568615864e-18 0.13636366725957472 1.0 
      -2.9984791143078323e-18 2.9984791143078323e-18 0.09090911150638312 1.0 
      -1.4992395571539162e-18 1.4992395571539162e-18 0.04545455575319156 1.0 
      0.0 0.0 0.0 1.0 
      0.01785715515090053 0.01785715515090053 0.01785715515090053 1.0 
      0.03571431030180106 0.03571431030180106 0.03571431030180106 1.0 
      0.05357140771767468 0.05357140771767467 0.05357140771767468 1.0 
      0.0714285628685752 0.07142856286857521 0.0714285628685752 1.0 
      0.08928571801947574 0.08928571801947574 0.08928571801947574 1.0 
      0.10714287317037627 0.10714287317037627 0.10714287317037627 1.0 
      0.1250000283212768 0.1250000283212768 0.1250000283212768 1.0 
      0.1428571257371504 0.14285712573715043 0.1428571257371504 1.0 
      0.16071428088805093 0.16071428088805093 0.16071428088805093 1.0 
      0.17857143603895148 0.17857143603895148 0.17857143603895148 1.0 
      0.19642859118985198 0.19642859118985204 0.19642859118985198 1.0 
      0.21428568860572558 0.21428568860572564 0.21428568860572558 1.0 
      0.23214284375662614 0.23214284375662614 0.23214284375662614 1.0 
      0.24999999890752664 0.2499999989075267 0.24999999890752664 1.0 
   } 
   MaxAngularMomentum = { 
      F = p 
   } 
   MaxSCCIterations = 1 
   OrbitalResolvedSCC = No 
   PolynomialRepulsive = SetForAll {Yes} 
   ReadInitialCharges = Yes 
   SCC = Yes 
   SCCTolerance = 1000000.0 
   SlaterKosterFiles = Type2FileNames{ 
      Prefix = /home/inukai/tango/tests/1element/qe_fit_v2_F/ 
      Separator = "-" 
      Suffix = ".skf" 
      } 
   } 
Options { 
   WriteResultsTag = Yes 
} 
ParserOptions { 
   IgnoreUnprocessedNodes = Yes  
} 
