Geometry = GenFormat {
1  S
H
1      1      0.000000000000000      0.000000000000000      0.000000000000000
0.000000000000000      0.000000000000000      0.000000000000000
-0.906500000000000      0.906500000000000      0.906500000000000
0.906500000000000     -0.906500000000000      0.906500000000000
0.906500000000000      0.906500000000000     -0.906500000000000
}
Hamiltonian = DFTB {
  KPointsAndWeights = {
0.0 0.0 0.0 1.0
0.03571431030180106 -0.03571431030180106 0.03571431030180106 1.0
0.0714285628685752 -0.0714285628685752 0.0714285628685752 1.0
0.10714287317037625 -0.10714287317037625 0.10714287317037625 1.0
0.1428571257371504 -0.1428571257371504 0.1428571257371504 1.0
0.17857143603895148 -0.17857143603895148 0.17857143603895148 1.0
0.21428568860572558 -0.21428568860572558 0.21428568860572558 1.0
0.2499999989075267 -0.2499999989075267 0.2499999989075267 1.0
0.2857143092093277 -0.2857143092093277 0.2857143092093277 1.0
0.3214285617761018 -0.3214285617761018 0.3214285617761018 1.0
0.35714287207790296 -0.35714287207790296 0.35714287207790296 1.0
0.39285712464467715 -0.39285712464467715 0.39285712464467715 1.0
0.42857143494647815 -0.42857143494647815 0.42857143494647815 1.0
0.4642856875132523 -0.4642856875132523 0.4642856875132523 1.0
0.4999999978150534 -0.4999999978150534 0.4999999978150534 1.0
0.4499999633925318 -0.4499999633925318 0.4999999978150533 1.0
0.4000000444400642 -0.4000000444400642 0.4999999978150534 1.0
0.3500000100175427 -0.3500000100175427 0.4999999978150534 1.0
0.29999997559502123 -0.29999997559502123 0.4999999978150534 1.0
0.2499999989075267 -0.2499999989075267 0.5000000555500803 1.0
0.2000000222200321 -0.2000000222200321 0.4999999978150534 1.0
0.14999998779751061 -0.14999998779751061 0.4999999978150534 1.0
0.09999995337498914 -0.09999995337498914 0.4999999978150534 1.0
0.05000003442252151 -0.05000003442252151 0.4999999978150534 1.0
1.3909379959428167e-17 -1.3909379959428167e-17 0.4999999978150534 1.0
-4.757230119029967e-18 4.757230119029967e-18 0.45454544206186176 1.0
1.1915656263217642e-17 -1.1915656263217642e-17 0.40909088630867024 1.0
-6.750953815240491e-18 6.750953815240491e-18 0.36363633055547867 1.0
-7.747815663345754e-18 7.747815663345754e-18 0.3181817748022871 1.0
-8.744677511451016e-18 8.744677511451016e-18 0.2727272190490955 1.0
6.636436383032792e-18 -6.636436383032792e-18 0.22727277876595783 1.0
3.987447392421049e-18 -3.987447392421049e-18 0.18181822301276623 1.0
3.816649115569027e-18 -3.816649115569027e-18 0.1363636672595747 1.0
1.9937236962105246e-18 -1.9937236962105246e-18 0.09090911150638312 1.0
9.968618481052623e-19 -9.968618481052623e-19 0.04545455575319156 1.0
0.0 0.0 0.0 1.0
0.01785715515090053 0.01785715515090053 0.01785715515090053 1.0
0.03571431030180106 0.03571431030180106 0.03571431030180106 1.0
0.05357140771767467 0.05357140771767468 0.05357140771767467 1.0
0.0714285628685752 0.0714285628685752 0.0714285628685752 1.0
0.08928571801947574 0.08928571801947573 0.08928571801947574 1.0
0.10714287317037625 0.10714287317037627 0.10714287317037625 1.0
0.12500002832127677 0.12500002832127677 0.12500002832127677 1.0
0.1428571257371504 0.1428571257371504 0.1428571257371504 1.0
0.1607142808880509 0.16071428088805093 0.1607142808880509 1.0
0.17857143603895148 0.17857143603895145 0.17857143603895148 1.0
0.19642859118985198 0.19642859118985198 0.19642859118985198 1.0
0.21428568860572558 0.21428568860572558 0.21428568860572558 1.0
0.23214284375662614 0.23214284375662614 0.23214284375662614 1.0
0.2499999989075267 0.24999999890752664 0.2499999989075267 1.0
  }
  MaxAngularMomentum = {
    H = s
  }
  MaxSCCIterations = 1
  OrbitalResolvedSCC = No
  PolynomialRepulsive = SetForAll {
Yes
  }
  ReadInitialCharges = Yes
  SCC = Yes
  SCCTolerance = 1000000.0
  SlaterKosterFiles = Type2FileNames {
    Prefix = /home/inukai/tango/tests/1element/qe_fit_v2_H/
    Separator = "-"
    Suffix = ".skf"
    LowerCaseTypeName = No
  }
  OldSKInterpolation = No
  Mixer = Broyden {
    MixingParameter = 0.20000000000000001
    CachedIterations = -1
    InverseJacobiWeight = 1.0000000000000000E-002
    MinimalWeight = 1.0000000000000000
    MaximalWeight = 100000.00000000000
    WeightFactor = 1.0000000000000000E-002
  }
  DampXH = No
  EwaldParameter = 0.0000000000000000
  SpinPolarisation = {}
  ElectricField = {}
  Eigensolver = RelativelyRobust {}
  Filling = Fermi {
    Temperature = 0.0000000000000000
    IndependentKFilling = No
  }
  Charge = 0.0000000000000000
  Dispersion = {}
  ThirdOrder = No
  ThirdOrderFull = No
  Differentiation = FiniteDiff {
    Delta = 1.2207031250000000E-004
  }
  ForceEvaluation = "Traditional"
}
Options = {
  WriteResultsTag = Yes
  WriteAutotestTag = No
  WriteDetailedXML = No
  WriteDetailedOut = Yes
  RestartFrequency = 20
  RandomSeed = 0
  WriteHS = No
  WriteRealHS = No
  MinimiseMemoryUsage = No
  ShowFoldedCoords = No
}
ParserOptions = {
  IgnoreUnprocessedNodes = Yes
  ParserVersion = 5
  WriteHSDInput = Yes
  WriteXMLInput = No
  StopAfterParsing = No
}
Driver = {}
ExcitedState = {}
Analysis = {
  ProjectStates = {}
  MullikenAnalysis = Yes
  AtomResolvedEnergies = No
  WriteEigenvectors = No
  WriteBandOut = Yes
  CalculateForces = No
}
