Geometry = GenFormat { 
    <<< "geo_end.gen" 
} 
 
Hamiltonian = DFTB{ 
   KPointsAndWeights = { 
      0.0 0.0 0.0 1.0 
      0.0833333 -2.2187499988811988e-08 0.0 1.0 
      0.1666667 -9.437499998522713e-08 0.0 1.0 
      0.25 -2.995999998040631e-08 0.0 1.0 
      0.33333330000000005 -5.214750000156034e-08 0.0 1.0 
      0.4166667 -1.243349999686309e-07 0.0 1.0 
      0.5 -1.4652249997211518e-07 0.0 1.0 
      0.4444444 0.11111099570500002 0.0 1.0 
      0.3888889 0.22222200133000009 0.0 1.0 
      0.33333330000000005 0.33333314355750004 0.0 1.0 
      0.2916667 0.2916664585375 0.0 1.0 
      0.25 0.24999982351750008 0.0 1.0 
      0.20833330000000003 0.20833318849750004 0.0 1.0 
      0.1666667 0.16666650347750003 0.0 1.0 
      0.125 0.12499995506000001 0.0 1.0 
      0.0833333 0.08333332004000003 0.0 1.0 
      0.041666699999999994 0.041666635020000016 0.0 1.0 
      0.0 0.0 0.0 1.0 
      0.0 0.0 0.16666666348360004 1.0 
      0.0 0.0 0.3333333269672001 1.0 
      0.0 0.0 0.4999998350392001 1.0 
      0.0714286 -3.521749999525883e-08 0.4999998350392001 1.0 
      0.1428571 -2.0434999982914496e-08 0.4999998350392001 1.0 
      0.2142857 -5.565249998401074e-08 0.4999998350392001 1.0 
      0.28571430000000003 -9.086999998810445e-08 0.4999998350392001 1.0 
      0.3571429 -1.2608749999219816e-07 0.4999998350392001 1.0 
      0.4285714 -1.1130499996802148e-07 0.4999998350392001 1.0 
      0.5 -1.4652249997211518e-07 0.4999998350392001 1.0 
      0.45833330000000005 0.08333318849750002 0.4999998350392001 1.0 
      0.4166667 0.16666647351750008 0.4999998350392001 1.0 
      0.375 0.2499998085375 0.4999998350392001 1.0 
      0.33333330000000005 0.33333314355750004 0.4999998350392001 1.0 
      0.2962963 0.296296053205 0.4999998350392001 1.0 
      0.2592593 0.2592590494550001 0.4999998350392001 1.0 
      0.2222222 0.22222209570500004 0.4999998350392001 1.0 
      0.1851852 0.18518500535250002 0.4999998350392001 1.0 
      0.1481481 0.1481480516025 0.4999998350392001 1.0 
      0.1111111 0.11111104785250002 0.4999998350392001 1.0 
      0.0740741 0.0740740441025 0.4999998350392001 1.0 
      0.037037 0.03703700375000001 0.4999998350392001 1.0 
      0.0 0.0 0.4999998350392001 1.0 
      0.5 -1.4652249997211518e-07 0.4999998350392001 1.0 
      0.5 -1.4652249997211518e-07 0.37499995398520003 1.0 
      0.5 -1.4652249997211518e-07 0.24999991751960005 1.0 
      0.5 -1.4652249997211518e-07 0.12500003646560004 1.0 
      0.5 -1.4652249997211518e-07 0.0 1.0 
      0.33333330000000005 0.33333314355750004 0.0 1.0 
      0.33333330000000005 0.33333314355750004 0.16666666348360004 1.0 
      0.33333330000000005 0.33333314355750004 0.3333333269672001 1.0 
      0.33333330000000005 0.33333314355750004 0.4999998350392001 1.0 
   } 
   MaxAngularMomentum = { 
      Sc = d 
   } 
   MaxSCCIterations = 1 
   OrbitalResolvedSCC = No 
   PolynomialRepulsive = SetForAll {Yes} 
   ReadInitialCharges = Yes 
   SCC = Yes 
   SCCTolerance = 1000000.0 
   SlaterKosterFiles = Type2FileNames{ 
      Prefix = /home/inukai/tango/tests/1element/qe_fit_v3_Sc/ 
      Separator = "-" 
      Suffix = ".skf" 
      } 
   } 
Options { 
   WriteResultsTag = Yes 
} 
ParserOptions { 
   IgnoreUnprocessedNodes = Yes  
} 
