Geometry = GenFormat { 
    <<< "geo_end.gen" 
} 
 
Hamiltonian = DFTB{ 
   KPointsAndWeights = { 
      0.0 0.0 0.0 1.0 
      0.03571431030180106 -0.03571431030180106 0.03571431030180106 1.0 
      0.0714285628685752 -0.0714285628685752 0.0714285628685752 1.0 
      0.10714287317037627 -0.10714287317037627 0.10714287317037627 1.0 
      0.1428571257371504 -0.1428571257371504 0.1428571257371504 1.0 
      0.17857143603895145 -0.17857143603895145 0.17857143603895145 1.0 
      0.21428568860572558 -0.21428568860572558 0.21428568860572558 1.0 
      0.24999999890752664 -0.24999999890752664 0.24999999890752664 1.0 
      0.2857143092093277 -0.2857143092093277 0.2857143092093277 1.0 
      0.32142856177610185 -0.32142856177610185 0.32142856177610185 1.0 
      0.3571428720779029 -0.3571428720779029 0.3571428720779029 1.0 
      0.3928571246446771 -0.3928571246446771 0.3928571246446771 1.0 
      0.42857143494647815 -0.42857143494647815 0.42857143494647815 1.0 
      0.4642856875132523 -0.4642856875132523 0.4642856875132523 1.0 
      0.4999999978150533 -0.4999999978150533 0.4999999978150533 1.0 
      0.4499999633925318 -0.4499999633925318 0.4999999978150533 1.0 
      0.4000000444400642 -0.4000000444400642 0.4999999978150534 1.0 
      0.3500000100175427 -0.3500000100175427 0.4999999978150534 1.0 
      0.2999999755950212 -0.2999999755950212 0.4999999978150533 1.0 
      0.2499999989075267 -0.2499999989075267 0.5000000555500803 1.0 
      0.2000000222200321 -0.2000000222200321 0.4999999978150534 1.0 
      0.14999998779751064 -0.14999998779751064 0.4999999978150534 1.0 
      0.09999995337498918 -0.09999995337498918 0.49999999781505344 1.0 
      0.05000003442252152 -0.05000003442252152 0.4999999978150533 1.0 
      7.739390452533977e-18 -7.739390452533977e-18 0.4999999978150533 1.0 
      -1.413609886683053e-17 1.413609886683053e-17 0.45454544206186176 1.0 
      4.71716593268974e-18 -4.71716593268974e-18 0.40909088630867024 1.0 
      8.595311330946659e-18 -8.595311330946659e-18 0.36363633055547867 1.0 
      7.08419907102454e-18 -7.08419907102454e-18 0.3181817748022871 1.0 
      8.267715640191942e-18 -8.267715640191942e-18 0.2727272190490956 1.0 
      -5.917582845837001e-18 5.917582845837001e-18 0.2272727787659578 1.0 
      5.448122253051594e-18 -5.448122253051594e-18 0.18181822301276623 1.0 
      -3.550549707502201e-18 3.550549707502201e-18 0.1363636672595747 1.0 
      2.724061126525797e-18 -2.724061126525797e-18 0.09090911150638312 1.0 
      1.3620305632628986e-18 -1.3620305632628986e-18 0.04545455575319156 1.0 
      0.0 0.0 0.0 1.0 
      0.01785715515090053 0.01785715515090053 0.01785715515090053 1.0 
      0.03571431030180106 0.03571431030180106 0.03571431030180106 1.0 
      0.05357140771767467 0.05357140771767466 0.05357140771767467 1.0 
      0.0714285628685752 0.0714285628685752 0.0714285628685752 1.0 
      0.08928571801947573 0.08928571801947573 0.08928571801947573 1.0 
      0.10714287317037627 0.10714287317037627 0.10714287317037627 1.0 
      0.1250000283212768 0.1250000283212768 0.1250000283212768 1.0 
      0.1428571257371504 0.1428571257371504 0.1428571257371504 1.0 
      0.16071428088805093 0.1607142808880509 0.16071428088805093 1.0 
      0.17857143603895145 0.17857143603895145 0.17857143603895145 1.0 
      0.19642859118985198 0.19642859118985195 0.19642859118985198 1.0 
      0.21428568860572558 0.21428568860572555 0.21428568860572558 1.0 
      0.23214284375662614 0.23214284375662614 0.23214284375662614 1.0 
      0.24999999890752664 0.24999999890752664 0.24999999890752664 1.0 
   } 
   MaxAngularMomentum = { 
      B = p 
   } 
   MaxSCCIterations = 1 
   OrbitalResolvedSCC = No 
   PolynomialRepulsive = SetForAll {Yes} 
   ReadInitialCharges = Yes 
   SCC = Yes 
   SCCTolerance = 1000000.0 
   SlaterKosterFiles = Type2FileNames{ 
      Prefix = /home/inukai/tango/tests/1element/qe_fit_v2_B/ 
      Separator = "-" 
      Suffix = ".skf" 
      } 
   } 
Options { 
   WriteResultsTag = Yes 
} 
ParserOptions { 
   IgnoreUnprocessedNodes = Yes  
} 
