&CONTROL
   calculation      = 'bands'
   verbosity        = 'high'
   restart_mode     = 'restart'
   tstress          = .true.
   tprnfor          = .true.
   disk_io          = 'low'
/
&SYSTEM
   ecutwfc          = 40.0
   ecutrho          = 200.0
   occupations      = 'smearing'
   degauss          = 0.001
   smearing         = 'gaussian'
   input_dft        = 'PBE'
   ntyp             = 1
   nat              = 2
   ibrav            = 0
/
&ELECTRONS
   electron_maxstep = 250
   scf_must_converge = .false.
   conv_thr         = 1e-07
   mixing_beta      = 0.1
/
&IONS
/
&CELL
/

ATOMIC_SPECIES
In 114.818 in_pbe_v1.4.uspp.F.UPF

K_POINTS crystal_b
50
0.00000000000000 0.00000000000000 0.00000000000000 0
0.00000000000000 0.10000000000000 0.00000000000000 0
0.00000000000000 0.20000000000000 0.00000000000000 0
0.00000000000000 0.30000000000000 0.00000000000000 0
0.00000000000000 0.40000000000000 0.00000000000000 0
0.00000000000000 0.50000000000000 0.00000000000000 0
0.10000000000000 0.50000000000000 0.00000000000000 0
0.20000000000000 0.50000000000000 0.00000000000000 0
0.30000000000000 0.50000000000000 0.00000000000000 0
0.40000000000000 0.50000000000000 0.00000000000000 0
0.50000000000000 0.50000000000000 0.00000000000000 0
0.42857142857143 0.42857142857143 0.00000000000000 0
0.35714285714286 0.35714285714286 0.00000000000000 0
0.28571428571429 0.28571428571429 0.00000000000000 0
0.21428571428571 0.21428571428571 0.00000000000000 0
0.14285714285714 0.14285714285714 0.00000000000000 0
0.07142857142857 0.07142857142857 0.00000000000000 0
0.00000000000000 0.00000000000000 0.00000000000000 0
0.00000000000000 0.00000000000000 0.16666666666667 0
0.00000000000000 0.00000000000000 0.33333333333333 0
0.00000000000000 0.00000000000000 0.50000000000000 0
0.00000000000000 0.10000000000000 0.50000000000000 0
0.00000000000000 0.20000000000000 0.50000000000000 0
0.00000000000000 0.30000000000000 0.50000000000000 0
0.00000000000000 0.40000000000000 0.50000000000000 0
0.00000000000000 0.50000000000000 0.50000000000000 0
0.08333333333333 0.50000000000000 0.50000000000000 0
0.16666666666667 0.50000000000000 0.50000000000000 0
0.25000000000000 0.50000000000000 0.50000000000000 0
0.33333333333333 0.50000000000000 0.50000000000000 0
0.41666666666667 0.50000000000000 0.50000000000000 0
0.50000000000000 0.50000000000000 0.50000000000000 0
0.44444444444444 0.44444444444444 0.50000000000000 0
0.38888888888889 0.38888888888889 0.50000000000000 0
0.33333333333333 0.33333333333333 0.50000000000000 0
0.27777777777778 0.27777777777778 0.50000000000000 0
0.22222222222222 0.22222222222222 0.50000000000000 0
0.16666666666667 0.16666666666667 0.50000000000000 0
0.11111111111111 0.11111111111111 0.50000000000000 0
0.05555555555556 0.05555555555556 0.50000000000000 0
0.00000000000000 0.00000000000000 0.50000000000000 0
0.00000000000000 0.50000000000000 0.00000000000000 0
0.00000000000000 0.50000000000000 0.12500000000000 0
0.00000000000000 0.50000000000000 0.25000000000000 0
0.00000000000000 0.50000000000000 0.37500000000000 0
0.00000000000000 0.50000000000000 0.50000000000000 0
0.50000000000000 0.50000000000000 0.00000000000000 0
0.50000000000000 0.50000000000000 0.16666666666667 0
0.50000000000000 0.50000000000000 0.33333333333333 0
0.50000000000000 0.50000000000000 0.50000000000000 0

CELL_PARAMETERS angstrom
3.29840900000000 0.00000000000000 0.00000000000000
0.00000000000000 3.29840900000000 0.00000000000000
0.00000000000000 0.00000000000000 5.06255800000000

ATOMIC_POSITIONS angstrom
In 0.0000000000 0.0000000000 0.0000000000 
In 1.6492045000 1.6492045000 2.5312790000 

