Geometry = GenFormat {
2  S
Cd
1      1      0.000000000000000      0.000000000000000      0.000000000000000
2      1      0.000000000000000      1.719926451915895      2.809500000000000
0.000000000000000      0.000000000000000      0.000000000000000
2.979000000000000      0.000000000000000      0.000000000000000
-1.489500000000000      2.579889677873842      0.000000000000000
0.000000000000000      0.000000000000000      5.619000000000000
}
Hamiltonian = DFTB {
  KPointsAndWeights = {
0.0 0.0 0.0 1.0
0.0333333 1.1249999978651855e-09 0.0 1.0
0.06666669999999998 -4.774999999523533e-08 0.0 1.0
0.09999999999999998 -4.662499999516143e-08 0.0 1.0
0.1333333 -4.5499999992925194e-08 0.0 1.0
0.16666669999999997 -9.437500001022883e-08 0.0 1.0
0.19999999999999996 -6.647499996690043e-09 0.0 1.0
0.2333333 -5.522499994453803e-09 0.0 1.0
0.2666666999999999 -5.4397500007432795e-08 0.0 1.0
0.3 -5.327250000068635e-08 0.0 1.0
0.3333333 -5.2147500011609656e-08 0.0 1.0
0.3666667 -1.0102250002007843e-07 0.0 1.0
0.3999999999999999 -9.989750000468265e-08 0.0 1.0
0.4333332999999999 -9.877249998928687e-08 0.0 1.0
0.46666669999999993 -1.4764749996241615e-07 0.0 1.0
0.49999999999999994 -1.4652249997333946e-07 0.0 1.0
0.47916669999999995 0.04166649598749998 0.0 1.0
0.4583333 0.08333318849749997 0.0 1.0
0.43749999999999994 0.12499983100750005 0.0 1.0
0.41666669999999995 0.16666647351749997 0.0 1.0
0.3958333 0.20833316602749996 0.0 1.0
0.37499999999999994 0.24999980853749998 0.0 1.0
0.35416669999999995 0.2916664510475 0.0 1.0
0.3333333 0.3333331435574998 0.0 1.0
0.31481479999999995 0.3148146416825 0.0 1.0
0.29629629999999996 0.29629605320499997 0.0 1.0
0.27777779999999996 0.2777775513299999 0.0 1.0
0.2592593 0.25925904945499995 0.0 1.0
0.2407407 0.24074059757999994 0.0 1.0
0.22222219999999998 0.22222209570499996 0.0 1.0
0.20370369999999996 0.20370359382999997 0.0 1.0
0.18518519999999997 0.18518500535249993 0.0 1.0
0.16666669999999997 0.1666665034775 0.0 1.0
0.1481481 0.14814805160249997 0.0 1.0
0.1296296 0.12962954972749996 0.0 1.0
0.11111109999999999 0.11111104785249998 0.0 1.0
0.09259259999999998 0.09259254597749997 0.0 1.0
0.07407409999999999 0.07407404410249997 0.0 1.0
0.05555559999999999 0.05555545562499999 0.0 1.0
0.037037 0.03703700374999999 0.0 1.0
0.0185185 0.018518501874999996 0.0 1.0
0.0 0.0 0.0 1.0
0.0 0.0 0.0624999022659 1.0
0.0 0.0 0.12499999315209999 1.0
0.0 0.0 0.18749989541800002 1.0
0.0 0.0 0.24999998630419998 1.0
0.0 0.0 0.3124998885701 1.0
0.0 0.0 0.37499997945630004 1.0
0.0 0.0 0.4374998817222 1.0
0.0 0.0 0.49999997260839996 1.0
  }
  MaxAngularMomentum = {
    Cd = d
  }
  MaxSCCIterations = 1
  OrbitalResolvedSCC = No
  PolynomialRepulsive = SetForAll {
Yes
  }
  ReadInitialCharges = Yes
  SCC = Yes
  SCCTolerance = 1000000.0
  SlaterKosterFiles = Type2FileNames {
    Prefix = /home/inukai/tango/tests/1element/qe_fit_v2_Cd/
    Separator = "-"
    Suffix = ".skf"
    LowerCaseTypeName = No
  }
  OldSKInterpolation = No
  Mixer = Broyden {
    MixingParameter = 0.20000000000000001
    CachedIterations = -1
    InverseJacobiWeight = 1.0000000000000000E-002
    MinimalWeight = 1.0000000000000000
    MaximalWeight = 100000.00000000000
    WeightFactor = 1.0000000000000000E-002
  }
  DampXH = No
  EwaldParameter = 0.0000000000000000
  SpinPolarisation = {}
  ElectricField = {}
  Eigensolver = RelativelyRobust {}
  Filling = Fermi {
    Temperature = 0.0000000000000000
    IndependentKFilling = No
  }
  Charge = 0.0000000000000000
  Dispersion = {}
  ThirdOrder = No
  ThirdOrderFull = No
  Differentiation = FiniteDiff {
    Delta = 1.2207031250000000E-004
  }
  ForceEvaluation = "Traditional"
}
Options = {
  WriteResultsTag = Yes
  WriteAutotestTag = No
  WriteDetailedXML = No
  WriteDetailedOut = Yes
  RestartFrequency = 20
  RandomSeed = 0
  WriteHS = No
  WriteRealHS = No
  MinimiseMemoryUsage = No
  ShowFoldedCoords = No
}
ParserOptions = {
  IgnoreUnprocessedNodes = Yes
  ParserVersion = 5
  WriteHSDInput = Yes
  WriteXMLInput = No
  StopAfterParsing = No
}
Driver = {}
ExcitedState = {}
Analysis = {
  ProjectStates = {}
  MullikenAnalysis = Yes
  AtomResolvedEnergies = No
  WriteEigenvectors = No
  WriteBandOut = Yes
  CalculateForces = No
}
