&CONTROL
   calculation      = 'bands'
   verbosity        = 'high'
   restart_mode     = 'restart'
   tstress          = .true.
   tprnfor          = .true.
   disk_io          = 'low'
/
&SYSTEM
   ecutwfc          = 40.0
   ecutrho          = 200.0
   occupations      = 'smearing'
   degauss          = 0.001
   smearing         = 'gaussian'
   input_dft        = 'PBE'
   ntyp             = 1
   nat              = 2
   ibrav            = 0
/
&ELECTRONS
   electron_maxstep = 250
   scf_must_converge = .false.
   conv_thr         = 1e-07
   mixing_beta      = 0.1
/
&IONS
/
&CELL
/

ATOMIC_SPECIES
Cd 112.414 cd_pbe_v1.uspp.F.UPF

K_POINTS crystal_b
50
0.00000000000000 0.00000000000000 0.00000000000000 0
0.03333333333333 0.00000000000000 0.00000000000000 0
0.06666666666667 0.00000000000000 0.00000000000000 0
0.10000000000000 0.00000000000000 0.00000000000000 0
0.13333333333333 0.00000000000000 0.00000000000000 0
0.16666666666667 0.00000000000000 0.00000000000000 0
0.20000000000000 0.00000000000000 0.00000000000000 0
0.23333333333333 0.00000000000000 0.00000000000000 0
0.26666666666667 0.00000000000000 0.00000000000000 0
0.30000000000000 0.00000000000000 0.00000000000000 0
0.33333333333333 0.00000000000000 0.00000000000000 0
0.36666666666667 0.00000000000000 0.00000000000000 0
0.40000000000000 0.00000000000000 0.00000000000000 0
0.43333333333333 0.00000000000000 0.00000000000000 0
0.46666666666667 0.00000000000000 0.00000000000000 0
0.50000000000000 0.00000000000000 0.00000000000000 0
0.47916666666667 0.04166666666667 0.00000000000000 0
0.45833333333333 0.08333333333333 0.00000000000000 0
0.43750000000000 0.12500000000000 0.00000000000000 0
0.41666666666667 0.16666666666667 0.00000000000000 0
0.39583333333333 0.20833333333333 0.00000000000000 0
0.37500000000000 0.25000000000000 0.00000000000000 0
0.35416666666667 0.29166666666667 0.00000000000000 0
0.33333333333333 0.33333333333333 0.00000000000000 0
0.31481481481481 0.31481481481481 0.00000000000000 0
0.29629629629630 0.29629629629630 0.00000000000000 0
0.27777777777778 0.27777777777778 0.00000000000000 0
0.25925925925926 0.25925925925926 0.00000000000000 0
0.24074074074074 0.24074074074074 0.00000000000000 0
0.22222222222222 0.22222222222222 0.00000000000000 0
0.20370370370370 0.20370370370370 0.00000000000000 0
0.18518518518519 0.18518518518519 0.00000000000000 0
0.16666666666667 0.16666666666667 0.00000000000000 0
0.14814814814815 0.14814814814815 0.00000000000000 0
0.12962962962963 0.12962962962963 0.00000000000000 0
0.11111111111111 0.11111111111111 0.00000000000000 0
0.09259259259259 0.09259259259259 0.00000000000000 0
0.07407407407407 0.07407407407407 0.00000000000000 0
0.05555555555556 0.05555555555556 0.00000000000000 0
0.03703703703704 0.03703703703704 0.00000000000000 0
0.01851851851852 0.01851851851852 0.00000000000000 0
0.00000000000000 0.00000000000000 0.00000000000000 0
0.00000000000000 0.00000000000000 0.06250000000000 0
0.00000000000000 0.00000000000000 0.12500000000000 0
0.00000000000000 0.00000000000000 0.18750000000000 0
0.00000000000000 0.00000000000000 0.25000000000000 0
0.00000000000000 0.00000000000000 0.31250000000000 0
0.00000000000000 0.00000000000000 0.37500000000000 0
0.00000000000000 0.00000000000000 0.43750000000000 0
0.00000000000000 0.00000000000000 0.50000000000000 0

CELL_PARAMETERS angstrom
2.97900000000000 0.00000000000000 0.00000000000000
-1.48950000000000 2.57988967787384 0.00000000000000
0.00000000000000 0.00000000000000 5.61900000000000

ATOMIC_POSITIONS angstrom
Cd 0.0000000000 0.0000000000 0.0000000000 
Cd 0.0000000000 1.7199264519 2.8095000000 

