Geometry = GenFormat { 
    <<< "geo_end.gen" 
} 
 
Hamiltonian = DFTB{ 
   KPointsAndWeights = { 
      0.0 0.0 0.0 1.0 
      0.0833333 -2.218749999283273e-08 0.0 1.0 
      0.1666667 -9.437499999085986e-08 0.0 1.0 
      0.25 -2.9959999983573574e-08 0.0 1.0 
      0.3333333 -5.214749998758984e-08 0.0 1.0 
      0.4166667 -1.2433500002744268e-07 0.0 1.0 
      0.5 -1.465224999431102e-07 0.0 1.0 
      0.4444444 0.111110995705 0.0 1.0 
      0.38888890000000004 0.22222200132999997 0.0 1.0 
      0.3333333 0.33333314355750004 0.0 1.0 
      0.29166670000000006 0.2916664585375 0.0 1.0 
      0.25 0.2499998235175 0.0 1.0 
      0.2083333 0.20833318849750002 0.0 1.0 
      0.1666667 0.16666650347750006 0.0 1.0 
      0.125 0.12499995506000001 0.0 1.0 
      0.0833333 0.08333332004000002 0.0 1.0 
      0.04166670000000001 0.041666635020000016 0.0 1.0 
      0.0 0.0 0.0 1.0 
      0.0 0.0 0.16666669921769997 1.0 
      0.0 0.0 0.3333332400254999 1.0 
      0.0 0.0 0.49999993924319996 1.0 
      0.0714286 -3.5217499995961225e-08 0.49999993924319996 1.0 
      0.1428571 -2.043499998672804e-08 0.49999993924319996 1.0 
      0.2142857 -5.5652499986826806e-08 0.49999993924319996 1.0 
      0.28571430000000003 -9.08699999916229e-08 0.49999993924319996 1.0 
      0.3571429 -1.26087499996419e-07 0.49999993924319996 1.0 
      0.4285714 -1.1130499997365361e-07 0.49999993924319996 1.0 
      0.5 -1.465224999431102e-07 0.49999993924319996 1.0 
      0.4583333 0.0833331884975 0.49999993924319996 1.0 
      0.4166667 0.1666664735175 0.49999993924319996 1.0 
      0.375 0.2499998085375 0.49999993924319996 1.0 
      0.3333333 0.33333314355750004 0.49999993924319996 1.0 
      0.2962963 0.296296053205 0.49999993924319996 1.0 
      0.2592593 0.2592590494550001 0.49999993924319996 1.0 
      0.2222222 0.22222209570500004 0.49999993924319996 1.0 
      0.18518520000000002 0.18518500535250004 0.49999993924319996 1.0 
      0.1481481 0.1481480516025 0.49999993924319996 1.0 
      0.1111111 0.11111104785250002 0.49999993924319996 1.0 
      0.0740741 0.07407404410250001 0.49999993924319996 1.0 
      0.037037 0.037037003750000005 0.49999993924319996 1.0 
      0.0 0.0 0.49999993924319996 1.0 
      0.5 -1.465224999431102e-07 0.49999993924319996 1.0 
      0.5 -1.465224999431102e-07 0.3333332400254999 1.0 
      0.5 -1.465224999431102e-07 0.16666669921769997 1.0 
      0.5 -1.465224999431102e-07 0.0 1.0 
      0.3333333 0.33333314355750004 0.0 1.0 
      0.3333333 0.33333314355750004 0.12499998481079999 1.0 
      0.3333333 0.33333314355750004 0.24999996962159998 1.0 
      0.3333333 0.33333314355750004 0.37499995443240003 1.0 
      0.3333333 0.33333314355750004 0.49999993924319996 1.0 
   } 
   MaxAngularMomentum = { 
      Ti = d 
   } 
   MaxSCCIterations = 1 
   OrbitalResolvedSCC = No 
   PolynomialRepulsive = SetForAll {Yes} 
   ReadInitialCharges = Yes 
   SCC = Yes 
   SCCTolerance = 1000000.0 
   SlaterKosterFiles = Type2FileNames{ 
      Prefix = /home/inukai/tango/tests/1element/qe_fit_v3_Ti/ 
      Separator = "-" 
      Suffix = ".skf" 
      } 
   } 
Options { 
   WriteResultsTag = Yes 
} 
ParserOptions { 
   IgnoreUnprocessedNodes = Yes  
} 
