Geometry = GenFormat { 
    <<< "geo_end.gen" 
} 
 
Hamiltonian = DFTB{ 
   KPointsAndWeights = { 
      0.0 0.0 0.0 1.0 
      0.07142857142857142 0.0 0.0 1.0 
      0.14285714285714285 0.0 0.0 1.0 
      0.21428571428571427 0.0 0.0 1.0 
      0.2857142857142857 0.0 0.0 1.0 
      0.3571428571428571 0.0 0.0 1.0 
      0.42857142857142855 0.0 0.0 1.0 
      0.5 0.0 0.0 1.0 
      0.4583333333333333 0.08333333333333333 0.0 1.0 
      0.41666666666666663 0.16666666666666666 0.0 1.0 
      0.375 0.25 0.0 1.0 
      0.3333333333333333 0.3333333333333333 0.0 1.0 
      0.2962962962962963 0.2962962962962963 0.0 1.0 
      0.25925925925925924 0.25925925925925924 0.0 1.0 
      0.2222222222222222 0.2222222222222222 0.0 1.0 
      0.18518518518518517 0.18518518518518517 0.0 1.0 
      0.14814814814814814 0.14814814814814814 0.0 1.0 
      0.1111111111111111 0.1111111111111111 0.0 1.0 
      0.07407407407407413 0.07407407407407413 0.0 1.0 
      0.037037037037037035 0.037037037037037035 0.0 1.0 
      0.0 0.0 0.0 1.0 
      0.0 0.0 0.5 1.0 
      0.0625 0.0 0.5 1.0 
      0.125 0.0 0.5 1.0 
      0.1875 0.0 0.5 1.0 
      0.25 0.0 0.5 1.0 
      0.3125 0.0 0.5 1.0 
      0.375 0.0 0.5 1.0 
      0.4375 0.0 0.5 1.0 
      0.5 0.0 0.5 1.0 
      0.4583333333333333 0.08333333333333333 0.5 1.0 
      0.41666666666666663 0.16666666666666666 0.5 1.0 
      0.375 0.25 0.5 1.0 
      0.3333333333333333 0.3333333333333333 0.5 1.0 
      0.303030303030303 0.303030303030303 0.5 1.0 
      0.2727272727272727 0.2727272727272727 0.5 1.0 
      0.24242424242424243 0.24242424242424243 0.5 1.0 
      0.2121212121212121 0.2121212121212121 0.5 1.0 
      0.1818181818181818 0.1818181818181818 0.5 1.0 
      0.15151515151515152 0.15151515151515152 0.5 1.0 
      0.12121212121212122 0.12121212121212122 0.5 1.0 
      0.09090909090909088 0.09090909090909088 0.5 1.0 
      0.06060606060606061 0.06060606060606061 0.5 1.0 
      0.030303030303030276 0.030303030303030276 0.5 1.0 
      0.0 0.0 0.5 1.0 
      0.5 0.0 0.5 1.0 
      0.5 0.0 0.0 1.0 
      0.3333333333333333 0.3333333333333333 0.0 1.0 
      0.3333333333333333 0.3333333333333333 0.25 1.0 
      0.3333333333333333 0.3333333333333333 0.5 1.0 
   } 
   MaxAngularMomentum = { 
      C = p 
   } 
   MaxSCCIterations = 1 
   OrbitalResolvedSCC = No 
   PolynomialRepulsive = SetForAll {Yes} 
   ReadInitialCharges = Yes 
   SCC = Yes 
   SCCTolerance = 1000000.0 
   SlaterKosterFiles = Type2FileNames{ 
      Prefix = /home/inukai/tango/tests/1element/gpaw_fit_v3_C/ 
      Separator = "-" 
      Suffix = ".skf" 
      } 
   } 
Options { 
   WriteResultsTag = Yes 
} 
ParserOptions { 
   IgnoreUnprocessedNodes = Yes  
} 
