Geometry = GenFormat {
2  S
Ge
1      1      0.000000000000000      0.000000000000000      0.000000000000000
2      1      1.414375000000000      1.414375000000000      1.414375000000000
0.000000000000000      0.000000000000000      0.000000000000000
0.000000000000000      2.828750000000000      2.828750000000000
2.828750000000000      0.000000000000000      2.828750000000000
2.828750000000000      2.828750000000000      0.000000000000000
}
Hamiltonian = DFTB {
  KPointsAndWeights = {
0.5000000133031198 0.5000000133031198 0.5000000133031198 1.0
0.4583333219576339 0.4583333219576339 0.4583333219576339 1.0
0.41666663061214776 0.41666663061214776 0.41666663061214776 1.0
0.3749999392666617 0.3749999392666617 0.3749999392666617 1.0
0.33333338934253204 0.33333338934253204 0.33333338934253204 1.0
0.291666697997046 0.291666697997046 0.291666697997046 1.0
0.2500000066515599 0.2500000066515599 0.2500000066515599 1.0
0.20833331530607388 0.20833331530607388 0.20833331530607388 1.0
0.16666662396058787 0.16666662396058787 0.16666662396058787 1.0
0.12499993261510185 0.12499993261510185 0.12499993261510185 1.0
0.08333338269097205 0.08333338269097205 0.08333338269097205 1.0
0.04166669134548603 0.04166669134548603 0.04166669134548603 1.0
0.0 0.0 0.0 1.0
0.03333336721852445 0.0 0.03333336721852445 1.0
0.06666666372637077 0.0 0.06666666372637077 1.0
0.10000003094489522 0.0 0.10000003094489522 1.0
0.13333332745274154 0.0 0.13333332745274154 1.0
0.16666669467126602 0.0 0.16666669467126602 1.0
0.1999999911791123 0.0 0.1999999911791123 1.0
0.23333335839763678 0.0 0.23333335839763678 1.0
0.2666666549054831 0.0 0.2666666549054831 1.0
0.3000000221240075 0.0 0.3000000221240075 1.0
0.33333331863185384 0.0 0.33333331863185384 1.0
0.3666666858503783 0.0 0.3666666858503783 1.0
0.3999999823582246 0.0 0.3999999823582246 1.0
0.4333333495767491 0.0 0.4333333495767491 1.0
0.46666664608459546 0.0 0.46666664608459546 1.0
0.5000000133031198 0.0 0.5000000133031198 1.0
0.5249999856840045 0.04999994476176949 0.5249999856840045 1.0
0.5500000287755674 0.10000003094489522 0.5500000287755674 1.0
0.5750000011564521 0.1499999757066647 0.5750000011564521 1.0
0.600000044248015 0.20000006188979044 0.600000044248015 1.0
0.6250000166288998 0.2500000066515599 0.6250000166288998 1.0
0.5882353430439895 0.2352941655018671 0.5882353430439895 1.0
0.551470528037723 0.22058818293081794 0.551470528037723 1.0
0.5147058544528127 0.20588234178112508 0.5147058544528127 1.0
0.47794118086790244 0.19117650063143224 0.47794118086790244 1.0
0.44117643657231403 0.17647051806038314 0.44117643657231403 1.0
0.4044117629874038 0.16176467691069024 0.4044117629874038 1.0
0.3676470894024935 0.1470588357609974 0.3676470894024935 1.0
0.330882345106905 0.1323529946113045 0.330882345106905 1.0
0.2941176008113166 0.11764701204025539 0.2941176008113166 1.0
0.25735292722640635 0.10294117089056254 0.25735292722640635 1.0
0.22058825364149606 0.08823532974086969 0.22058825364149606 1.0
0.18382350934590766 0.07352934716982057 0.18382350934590766 1.0
0.1470588357609974 0.058823506020127696 0.1470588357609974 1.0
0.11029409146540899 0.04411766487043484 0.11029409146540899 1.0
0.07352941788049869 0.029411823720741973 0.07352941788049869 1.0
0.036764673584910285 0.014705841149692866 0.036764673584910285 1.0
0.0 0.0 0.0 1.0
  }
  MaxAngularMomentum = {
    Ge = d
  }
  MaxSCCIterations = 1
  OrbitalResolvedSCC = No
  PolynomialRepulsive = SetForAll {
Yes
  }
  ReadInitialCharges = Yes
  SCC = Yes
  SCCTolerance = 1000000.0
  SlaterKosterFiles = Type2FileNames {
    Prefix = /home/inukai/tango/tests/1element/qe_fit_v2_Ge/
    Separator = "-"
    Suffix = ".skf"
    LowerCaseTypeName = No
  }
  OldSKInterpolation = No
  Mixer = Broyden {
    MixingParameter = 0.20000000000000001
    CachedIterations = -1
    InverseJacobiWeight = 1.0000000000000000E-002
    MinimalWeight = 1.0000000000000000
    MaximalWeight = 100000.00000000000
    WeightFactor = 1.0000000000000000E-002
  }
  DampXH = No
  EwaldParameter = 0.0000000000000000
  SpinPolarisation = {}
  ElectricField = {}
  Eigensolver = RelativelyRobust {}
  Filling = Fermi {
    Temperature = 0.0000000000000000
    IndependentKFilling = No
  }
  Charge = 0.0000000000000000
  Dispersion = {}
  ThirdOrder = No
  ThirdOrderFull = No
  Differentiation = FiniteDiff {
    Delta = 1.2207031250000000E-004
  }
  ForceEvaluation = "Traditional"
}
Options = {
  WriteResultsTag = Yes
  WriteAutotestTag = No
  WriteDetailedXML = No
  WriteDetailedOut = Yes
  RestartFrequency = 20
  RandomSeed = 0
  WriteHS = No
  WriteRealHS = No
  MinimiseMemoryUsage = No
  ShowFoldedCoords = No
}
ParserOptions = {
  IgnoreUnprocessedNodes = Yes
  ParserVersion = 5
  WriteHSDInput = Yes
  WriteXMLInput = No
  StopAfterParsing = No
}
Driver = {}
ExcitedState = {}
Analysis = {
  ProjectStates = {}
  MullikenAnalysis = Yes
  AtomResolvedEnergies = No
  WriteEigenvectors = No
  WriteBandOut = Yes
  CalculateForces = No
}
