&CONTROL
   calculation      = 'bands'
   verbosity        = 'high'
   restart_mode     = 'restart'
   tstress          = .true.
   tprnfor          = .true.
   disk_io          = 'low'
/
&SYSTEM
   ecutwfc          = 40.0
   ecutrho          = 200.0
   occupations      = 'smearing'
   degauss          = 0.001
   smearing         = 'gaussian'
   input_dft        = 'PBE'
   ntyp             = 1
   nat              = 2
   ibrav            = 0
/
&ELECTRONS
   electron_maxstep = 250
   scf_must_converge = .false.
   conv_thr         = 1e-07
   mixing_beta      = 0.1
/
&IONS
/
&CELL
/

ATOMIC_SPECIES
Ge 72.63 ge_pbe_v1.4.uspp.F.UPF

K_POINTS crystal_b
50
0.50000000000000 0.50000000000000 0.50000000000000 0
0.45833333333333 0.45833333333333 0.45833333333333 0
0.41666666666667 0.41666666666667 0.41666666666667 0
0.37500000000000 0.37500000000000 0.37500000000000 0
0.33333333333333 0.33333333333333 0.33333333333333 0
0.29166666666667 0.29166666666667 0.29166666666667 0
0.25000000000000 0.25000000000000 0.25000000000000 0
0.20833333333333 0.20833333333333 0.20833333333333 0
0.16666666666667 0.16666666666667 0.16666666666667 0
0.12500000000000 0.12500000000000 0.12500000000000 0
0.08333333333333 0.08333333333333 0.08333333333333 0
0.04166666666667 0.04166666666667 0.04166666666667 0
0.00000000000000 0.00000000000000 0.00000000000000 0
0.03333333333333 0.00000000000000 0.03333333333333 0
0.06666666666667 0.00000000000000 0.06666666666667 0
0.10000000000000 0.00000000000000 0.10000000000000 0
0.13333333333333 0.00000000000000 0.13333333333333 0
0.16666666666667 0.00000000000000 0.16666666666667 0
0.20000000000000 0.00000000000000 0.20000000000000 0
0.23333333333333 0.00000000000000 0.23333333333333 0
0.26666666666667 0.00000000000000 0.26666666666667 0
0.30000000000000 0.00000000000000 0.30000000000000 0
0.33333333333333 0.00000000000000 0.33333333333333 0
0.36666666666667 0.00000000000000 0.36666666666667 0
0.40000000000000 0.00000000000000 0.40000000000000 0
0.43333333333333 0.00000000000000 0.43333333333333 0
0.46666666666667 0.00000000000000 0.46666666666667 0
0.50000000000000 0.00000000000000 0.50000000000000 0
0.52500000000000 0.05000000000000 0.52500000000000 0
0.55000000000000 0.10000000000000 0.55000000000000 0
0.57500000000000 0.15000000000000 0.57500000000000 0
0.60000000000000 0.20000000000000 0.60000000000000 0
0.62500000000000 0.25000000000000 0.62500000000000 0
0.58823529411765 0.23529411764706 0.58823529411765 0
0.55147058823529 0.22058823529412 0.55147058823529 0
0.51470588235294 0.20588235294118 0.51470588235294 0
0.47794117647059 0.19117647058824 0.47794117647059 0
0.44117647058824 0.17647058823529 0.44117647058824 0
0.40441176470588 0.16176470588235 0.40441176470588 0
0.36764705882353 0.14705882352941 0.36764705882353 0
0.33088235294118 0.13235294117647 0.33088235294118 0
0.29411764705882 0.11764705882353 0.29411764705882 0
0.25735294117647 0.10294117647059 0.25735294117647 0
0.22058823529412 0.08823529411765 0.22058823529412 0
0.18382352941176 0.07352941176471 0.18382352941176 0
0.14705882352941 0.05882352941176 0.14705882352941 0
0.11029411764706 0.04411764705882 0.11029411764706 0
0.07352941176471 0.02941176470588 0.07352941176471 0
0.03676470588235 0.01470588235294 0.03676470588235 0
0.00000000000000 0.00000000000000 0.00000000000000 0

CELL_PARAMETERS angstrom
0.00000000000000 2.82875000000000 2.82875000000000
2.82875000000000 0.00000000000000 2.82875000000000
2.82875000000000 2.82875000000000 0.00000000000000

ATOMIC_POSITIONS angstrom
Ge 0.0000000000 0.0000000000 0.0000000000 
Ge 1.4143750000 1.4143750000 1.4143750000 

