Geometry = GenFormat { 
    <<< "geo_end.gen" 
} 
 
Hamiltonian = DFTB{ 
   KPointsAndWeights = { 
      0.0 0.0 0.0 1.0 
      0.03571431030180106 -0.03571431030180106 0.03571431030180106 1.0 
      0.0714285628685752 -0.0714285628685752 0.0714285628685752 1.0 
      0.10714287317037627 -0.10714287317037627 0.10714287317037627 1.0 
      0.1428571257371504 -0.1428571257371504 0.1428571257371504 1.0 
      0.17857143603895145 -0.17857143603895145 0.17857143603895145 1.0 
      0.21428568860572558 -0.21428568860572558 0.21428568860572558 1.0 
      0.2499999989075267 -0.2499999989075267 0.2499999989075267 1.0 
      0.2857143092093278 -0.2857143092093278 0.2857143092093278 1.0 
      0.3214285617761018 -0.3214285617761018 0.3214285617761018 1.0 
      0.3571428720779029 -0.3571428720779029 0.3571428720779029 1.0 
      0.3928571246446771 -0.3928571246446771 0.3928571246446771 1.0 
      0.42857143494647815 -0.42857143494647815 0.42857143494647815 1.0 
      0.4642856875132522 -0.4642856875132522 0.4642856875132522 1.0 
      0.4999999978150534 -0.4999999978150534 0.4999999978150534 1.0 
      0.4499999633925318 -0.4499999633925318 0.4999999978150533 1.0 
      0.4000000444400642 -0.4000000444400642 0.4999999978150534 1.0 
      0.35000001001754283 -0.35000001001754283 0.49999999781505344 1.0 
      0.2999999755950212 -0.2999999755950212 0.4999999978150533 1.0 
      0.2499999989075267 -0.2499999989075267 0.5000000555500803 1.0 
      0.2000000222200321 -0.2000000222200321 0.4999999978150534 1.0 
      0.1499999877975107 -0.1499999877975107 0.49999999781505344 1.0 
      0.09999995337498915 -0.09999995337498915 0.49999999781505344 1.0 
      0.05000003442252148 -0.05000003442252148 0.4999999978150534 1.0 
      1.5852256601654857e-17 -1.5852256601654857e-17 0.4999999978150534 1.0 
      -8.624153456656507e-18 8.624153456656507e-18 0.45454544206186176 1.0 
      2.238932945737871e-18 -2.238932945737871e-18 0.40909088630867024 1.0 
      1.1741435466952198e-17 -1.1741435466952198e-17 0.36363633055547867 1.0 
      4.934773638993706e-18 -4.934773638993706e-18 0.3181817748022871 1.0 
      -1.8718881889647864e-18 1.8718881889647864e-18 0.2727272190490955 1.0 
      5.439656026677151e-20 -5.439656026677151e-20 0.2272727787659578 1.0 
      -6.752265267691721e-18 6.752265267691721e-18 0.18181822301276623 1.0 
      3.770675164407645e-18 -3.770675164407645e-18 0.1363636672595747 1.0 
      -3.3761326338458603e-18 3.3761326338458603e-18 0.09090911150638312 1.0 
      -1.6880663169229302e-18 1.6880663169229302e-18 0.04545455575319156 1.0 
      0.0 0.0 0.0 1.0 
      0.01785715515090053 0.01785715515090053 0.01785715515090053 1.0 
      0.03571431030180106 0.03571431030180106 0.03571431030180106 1.0 
      0.05357140771767467 0.05357140771767468 0.05357140771767467 1.0 
      0.0714285628685752 0.0714285628685752 0.0714285628685752 1.0 
      0.08928571801947573 0.08928571801947574 0.08928571801947573 1.0 
      0.10714287317037627 0.10714287317037627 0.10714287317037627 1.0 
      0.12500002832127677 0.1250000283212768 0.12500002832127677 1.0 
      0.1428571257371504 0.1428571257371504 0.1428571257371504 1.0 
      0.1607142808880509 0.16071428088805093 0.1607142808880509 1.0 
      0.17857143603895145 0.17857143603895148 0.17857143603895145 1.0 
      0.19642859118985198 0.19642859118985195 0.19642859118985198 1.0 
      0.21428568860572558 0.21428568860572558 0.21428568860572558 1.0 
      0.2321428437566261 0.23214284375662614 0.2321428437566261 1.0 
      0.2499999989075267 0.24999999890752664 0.2499999989075267 1.0 
   } 
   MaxAngularMomentum = { 
      Te = d 
   } 
   MaxSCCIterations = 1 
   OrbitalResolvedSCC = No 
   PolynomialRepulsive = SetForAll {Yes} 
   ReadInitialCharges = Yes 
   SCC = Yes 
   SCCTolerance = 1000000.0 
   SlaterKosterFiles = Type2FileNames{ 
      Prefix = /home/inukai/tango/tests/1element/qe_fit_v2_Te/ 
      Separator = "-" 
      Suffix = ".skf" 
      } 
   } 
Options { 
   WriteResultsTag = Yes 
} 
ParserOptions { 
   IgnoreUnprocessedNodes = Yes  
} 
