Geometry = GenFormat {
2  S
Be
1      1      0.000000022627590      1.306404504697203      2.679869250000000
2      1      1.131379477372410      0.653202271944670      0.893289750000000
0.000000000000000      0.000000000000000      0.000000000000000
2.262759000000000      0.000000000000000      0.000000000000000
-1.131379500000000      1.959606776641873      0.000000000000000
0.000000000000000      0.000000000000000      3.573159000000000
}
Hamiltonian = DFTB {
  KPointsAndWeights = {
0.0 0.0 0.0 1.0
0.0833333 -2.2187499999525595e-08 0.0 1.0
0.16666669999999997 -9.437499999483476e-08 0.0 1.0
0.25 -2.9959999974222926e-08 0.0 1.0
0.3333333 -5.214749998258339e-08 0.0 1.0
0.4166667 -1.2433499998904888e-07 0.0 1.0
0.5 -1.4652249995974842e-07 0.0 1.0
0.4444444 0.11111099570500002 0.0 1.0
0.38888890000000004 0.22222200133000003 0.0 1.0
0.3333333 0.3333331435575 0.0 1.0
0.2916667 0.2916664585375 0.0 1.0
0.25 0.2499998235175 0.0 1.0
0.2083333 0.20833318849750002 0.0 1.0
0.16666669999999997 0.16666650347750003 0.0 1.0
0.125 0.12499995506000001 0.0 1.0
0.0833333 0.08333332004000003 0.0 1.0
0.04166670000000001 0.041666635020000016 0.0 1.0
0.0 0.0 0.0 1.0
0.0 0.0 0.1666666928388 1.0
0.0 0.0 0.3333333856776 1.0
0.0 0.0 0.4999999206048 1.0
0.0714286 -3.5217499991451324e-08 0.4999999206048 1.0
0.1428571 -2.0434999987119068e-08 0.4999999206048 1.0
0.21428569999999997 -5.565249996973552e-08 0.4999999206048 1.0
0.2857143 -9.086999997002171e-08 0.4999999206048 1.0
0.35714289999999993 -1.2608749997030792e-07 0.4999999206048 1.0
0.42857139999999994 -1.1130499993947104e-07 0.4999999206048 1.0
0.5 -1.4652249995974842e-07 0.4999999206048 1.0
0.4583333 0.08333318849750002 0.4999999206048 1.0
0.4166667 0.1666664735175 0.4999999206048 1.0
0.37499999999999994 0.24999980853750006 0.4999999206048 1.0
0.3333333 0.3333331435575 0.4999999206048 1.0
0.2962963 0.2962960532050001 0.4999999206048 1.0
0.2592593 0.259259049455 0.4999999206048 1.0
0.2222222 0.22222209570500004 0.4999999206048 1.0
0.1851852 0.18518500535250004 0.4999999206048 1.0
0.1481481 0.14814805160250005 0.4999999206048 1.0
0.1111111 0.11111104785250002 0.4999999206048 1.0
0.0740741 0.07407404410250001 0.4999999206048 1.0
0.037037 0.03703700375 0.4999999206048 1.0
0.0 0.0 0.4999999206048 1.0
0.5 -1.4652249995974842e-07 0.4999999206048 1.0
0.5 -1.4652249995974842e-07 0.37499994045359997 1.0
0.5 -1.4652249995974842e-07 0.2499999603024 1.0
0.5 -1.4652249995974842e-07 0.1249999801512 1.0
0.5 -1.4652249995974842e-07 0.0 1.0
0.3333333 0.3333331435575 0.0 1.0
0.3333333 0.3333331435575 0.1666666928388 1.0
0.3333333 0.3333331435575 0.3333333856776 1.0
0.3333333 0.3333331435575 0.4999999206048 1.0
  }
  MaxAngularMomentum = {
    Be = p
  }
  MaxSCCIterations = 1
  OrbitalResolvedSCC = No
  PolynomialRepulsive = SetForAll {
Yes
  }
  ReadInitialCharges = Yes
  SCC = Yes
  SCCTolerance = 1000000.0
  SlaterKosterFiles = Type2FileNames {
    Prefix = /home/inukai/tango/tests/1element/qe_fit_v3_Be/
    Separator = "-"
    Suffix = ".skf"
    LowerCaseTypeName = No
  }
  OldSKInterpolation = No
  Mixer = Broyden {
    MixingParameter = 0.20000000000000001
    CachedIterations = -1
    InverseJacobiWeight = 1.0000000000000000E-002
    MinimalWeight = 1.0000000000000000
    MaximalWeight = 100000.00000000000
    WeightFactor = 1.0000000000000000E-002
  }
  DampXH = No
  EwaldParameter = 0.0000000000000000
  SpinPolarisation = {}
  ElectricField = {}
  Eigensolver = RelativelyRobust {}
  Filling = Fermi {
    Temperature = 0.0000000000000000
    IndependentKFilling = No
  }
  Charge = 0.0000000000000000
  Dispersion = {}
  ThirdOrder = No
  ThirdOrderFull = No
  Differentiation = FiniteDiff {
    Delta = 1.2207031250000000E-004
  }
  ForceEvaluation = "Traditional"
}
Options = {
  WriteResultsTag = Yes
  WriteAutotestTag = No
  WriteDetailedXML = No
  WriteDetailedOut = Yes
  RestartFrequency = 20
  RandomSeed = 0
  WriteHS = No
  WriteRealHS = No
  MinimiseMemoryUsage = No
  ShowFoldedCoords = No
}
ParserOptions = {
  IgnoreUnprocessedNodes = Yes
  ParserVersion = 5
  WriteHSDInput = Yes
  WriteXMLInput = No
  StopAfterParsing = No
}
Driver = {}
ExcitedState = {}
Analysis = {
  ProjectStates = {}
  MullikenAnalysis = Yes
  AtomResolvedEnergies = No
  WriteEigenvectors = No
  WriteBandOut = Yes
  CalculateForces = No
}
