Geometry = GenFormat { 
    <<< "geo_end.gen" 
} 
 
Hamiltonian = DFTB{ 
   KPointsAndWeights = { 
      0.0 0.0 0.0 1.0 
      0.0357143 2.569250000275367e-08 0.0 1.0 
      0.0714286 -3.521749999696035e-08 0.0 1.0 
      0.10714290000000001 -9.524999996731238e-09 0.0 1.0 
      0.1428571 -2.043499998551611e-08 0.0 1.0 
      0.17857140000000002 5.2575000096638635e-09 0.0 1.0 
      0.2142857 -5.565249997869071e-08 0.0 1.0 
      0.25 -2.9959999983510735e-08 0.0 1.0 
      0.2857143 -9.08699999794368e-08 0.0 1.0 
      0.32142860000000006 -6.51774999867836e-08 0.0 1.0 
      0.3571429 -1.260874999650399e-07 0.0 1.0 
      0.39285710000000007 -5.0394999999321635e-08 0.0 1.0 
      0.4285714 -1.1130499995738142e-07 0.0 1.0 
      0.4642857 -8.56124999798712e-08 0.0 1.0 
      0.5 -1.4652249997832404e-07 0.0 1.0 
      0.4791667 0.04166649598750003 0.0 1.0 
      0.4583333 0.08333318849750003 0.0 1.0 
      0.43750000000000006 0.12499983100750005 0.0 1.0 
      0.4166667 0.16666647351750008 0.0 1.0 
      0.39583330000000005 0.20833316602750004 0.0 1.0 
      0.375 0.2499998085375 0.0 1.0 
      0.3541667 0.2916664510475 0.0 1.0 
      0.3333333 0.33333314355750004 0.0 1.0 
      0.3148148 0.3148146416825001 0.0 1.0 
      0.2962963 0.296296053205 0.0 1.0 
      0.2777778 0.27777755133 0.0 1.0 
      0.2592593 0.259259049455 0.0 1.0 
      0.24074070000000003 0.24074059757999997 0.0 1.0 
      0.22222220000000004 0.22222209570500004 0.0 1.0 
      0.20370370000000002 0.20370359383000006 0.0 1.0 
      0.18518520000000002 0.18518500535250002 0.0 1.0 
      0.1666667 0.16666650347750003 0.0 1.0 
      0.1481481 0.1481480516025 0.0 1.0 
      0.1296296 0.12962954972750002 0.0 1.0 
      0.11111110000000002 0.11111104785250002 0.0 1.0 
      0.09259260000000001 0.09259254597750002 0.0 1.0 
      0.0740741 0.0740740441025 0.0 1.0 
      0.0555556 0.05555545562500003 0.0 1.0 
      0.037037 0.037037003750000005 0.0 1.0 
      0.0185185 0.018518501875000003 0.0 1.0 
      0.0 0.0 0.0 1.0 
      0.0 0.0 0.055555605081200006 1.0 
      0.0 0.0 0.11111105338200002 1.0 
      0.0 0.0 0.1666666584632 1.0 
      0.0 0.0 0.22222226354440003 1.0 
      0.0 0.0 0.2777777118452 1.0 
      0.0 0.0 0.3333333169264 1.0 
      0.0 0.0 0.3888889220076 1.0 
      0.0 0.0 0.44444437030840006 1.0 
      0.0 0.0 0.49999997538960006 1.0 
   } 
   MaxAngularMomentum = { 
      C = p 
   } 
   MaxSCCIterations = 1 
   OrbitalResolvedSCC = No 
   PolynomialRepulsive = SetForAll {Yes} 
   ReadInitialCharges = Yes 
   SCC = Yes 
   SCCTolerance = 1000000.0 
   SlaterKosterFiles = Type2FileNames{ 
      Prefix = /home/inukai/tango/tests/1element/qe_fit_v2_C/ 
      Separator = "-" 
      Suffix = ".skf" 
      } 
   } 
Options { 
   WriteResultsTag = Yes 
} 
ParserOptions { 
   IgnoreUnprocessedNodes = Yes  
} 
