Geometry = GenFormat { 
    <<< "geo_end.gen" 
} 
 
Hamiltonian = DFTB{ 
   KPointsAndWeights = { 
      0.0 0.0 0.0 1.0 
      0.0 0.08333333333333333 0.0 1.0 
      0.0 0.16666666666666666 0.0 1.0 
      0.0 0.25 0.0 1.0 
      0.0 0.3333333333333333 0.0 1.0 
      0.0 0.41666666666666663 0.0 1.0 
      0.0 0.5 0.0 1.0 
      0.08333333333333333 0.5 0.0 1.0 
      0.16666666666666666 0.5 0.0 1.0 
      0.25 0.5 0.0 1.0 
      0.3333333333333333 0.5 0.0 1.0 
      0.41666666666666663 0.5 0.0 1.0 
      0.5 0.5 0.0 1.0 
      0.4444444444444444 0.4444444444444444 0.0 1.0 
      0.3888888888888889 0.3888888888888889 0.0 1.0 
      0.33333333333333337 0.33333333333333337 0.0 1.0 
      0.2777777777777778 0.2777777777777778 0.0 1.0 
      0.2222222222222222 0.2222222222222222 0.0 1.0 
      0.16666666666666669 0.16666666666666669 0.0 1.0 
      0.11111111111111116 0.11111111111111116 0.0 1.0 
      0.05555555555555558 0.05555555555555558 0.0 1.0 
      0.0 0.0 0.0 1.0 
      0.045454545454545456 0.045454545454545456 0.045454545454545456 1.0 
      0.09090909090909091 0.09090909090909091 0.09090909090909091 1.0 
      0.13636363636363635 0.13636363636363635 0.13636363636363635 1.0 
      0.18181818181818182 0.18181818181818182 0.18181818181818182 1.0 
      0.2272727272727273 0.2272727272727273 0.2272727272727273 1.0 
      0.2727272727272727 0.2727272727272727 0.2727272727272727 1.0 
      0.3181818181818182 0.3181818181818182 0.3181818181818182 1.0 
      0.36363636363636365 0.36363636363636365 0.36363636363636365 1.0 
      0.4090909090909091 0.4090909090909091 0.4090909090909091 1.0 
      0.4545454545454546 0.4545454545454546 0.4545454545454546 1.0 
      0.5 0.5 0.5 1.0 
      0.45 0.5 0.45 1.0 
      0.4 0.5 0.4 1.0 
      0.35 0.5 0.35 1.0 
      0.3 0.5 0.3 1.0 
      0.25 0.5 0.25 1.0 
      0.19999999999999996 0.5 0.19999999999999996 1.0 
      0.14999999999999997 0.5 0.14999999999999997 1.0 
      0.09999999999999998 0.5 0.09999999999999998 1.0 
      0.04999999999999999 0.5 0.04999999999999999 1.0 
      0.0 0.5 0.0 1.0 
      0.5 0.5 0.0 1.0 
      0.5 0.5 0.08333333333333333 1.0 
      0.5 0.5 0.16666666666666666 1.0 
      0.5 0.5 0.25 1.0 
      0.5 0.5 0.3333333333333333 1.0 
      0.5 0.5 0.41666666666666663 1.0 
      0.5 0.5 0.5 1.0 
   } 
   MaxAngularMomentum = { 
      N = p 
   } 
   MaxSCCIterations = 1 
   OrbitalResolvedSCC = No 
   PolynomialRepulsive = SetForAll {Yes} 
   ReadInitialCharges = Yes 
   SCC = Yes 
   SCCTolerance = 1000000.0 
   SlaterKosterFiles = Type2FileNames{ 
      Prefix = /home/inukai/tango/tests/1element/gpaw_fit_v3_N/ 
      Separator = "-" 
      Suffix = ".skf" 
      } 
   } 
Options { 
   WriteResultsTag = Yes 
} 
ParserOptions { 
   IgnoreUnprocessedNodes = Yes  
} 
