Geometry = GenFormat { 
    <<< "geo_end.gen" 
} 
 
Hamiltonian = DFTB{ 
   KPointsAndWeights = { 
      0.0 0.0 0.0 1.0 
      0.035714310301801055 -0.035714310301801055 0.035714310301801055 1.0 
      0.0714285628685752 -0.0714285628685752 0.0714285628685752 1.0 
      0.10714287317037625 -0.10714287317037625 0.10714287317037625 1.0 
      0.1428571257371504 -0.1428571257371504 0.1428571257371504 1.0 
      0.17857143603895145 -0.17857143603895145 0.17857143603895145 1.0 
      0.21428568860572558 -0.21428568860572558 0.21428568860572558 1.0 
      0.24999999890752664 -0.24999999890752664 0.24999999890752664 1.0 
      0.2857143092093277 -0.2857143092093277 0.2857143092093277 1.0 
      0.32142856177610185 -0.32142856177610185 0.32142856177610185 1.0 
      0.3571428720779029 -0.3571428720779029 0.3571428720779029 1.0 
      0.3928571246446771 -0.3928571246446771 0.3928571246446771 1.0 
      0.42857143494647815 -0.42857143494647815 0.42857143494647815 1.0 
      0.4642856875132522 -0.4642856875132522 0.4642856875132522 1.0 
      0.4999999978150533 -0.4999999978150533 0.4999999978150533 1.0 
      0.4499999633925318 -0.4499999633925318 0.4999999978150533 1.0 
      0.4000000444400642 -0.4000000444400642 0.4999999978150534 1.0 
      0.3500000100175427 -0.3500000100175427 0.4999999978150534 1.0 
      0.2999999755950212 -0.2999999755950212 0.4999999978150533 1.0 
      0.2499999989075267 -0.2499999989075267 0.5000000555500803 1.0 
      0.2000000222200321 -0.2000000222200321 0.4999999978150534 1.0 
      0.14999998779751061 -0.14999998779751061 0.4999999978150534 1.0 
      0.09999995337498914 -0.09999995337498914 0.4999999978150534 1.0 
      0.0500000344225215 -0.0500000344225215 0.4999999978150534 1.0 
      -1.2671583197379319e-17 1.2671583197379319e-17 0.4999999978150533 1.0 
      5.034705355445545e-18 -5.034705355445545e-18 0.45454544206186176 1.0 
      -1.2598502552435332e-17 1.2598502552435332e-17 0.4090908863086702 1.0 
      5.1077860003895315e-18 -5.1077860003895315e-18 0.36363633055547867 1.0 
      5.1443263228615254e-18 -5.1443263228615254e-18 0.3181817748022871 1.0 
      5.180866645333519e-18 -5.180866645333519e-18 0.2727272190490955 1.0 
      -1.8270161235996662e-19 1.8270161235996662e-19 0.2272727787659578 1.0 
      -1.461612898879733e-19 1.461612898879733e-19 0.18181822301276623 1.0 
      -1.0962096741597997e-19 1.0962096741597997e-19 0.1363636672595747 1.0 
      -7.308064494398665e-20 7.308064494398665e-20 0.09090911150638312 1.0 
      -3.6540322471993323e-20 3.6540322471993323e-20 0.04545455575319156 1.0 
      0.0 0.0 0.0 1.0 
      0.017857155150900528 0.01785715515090053 0.017857155150900528 1.0 
      0.035714310301801055 0.03571431030180106 0.035714310301801055 1.0 
      0.05357140771767467 0.05357140771767467 0.05357140771767467 1.0 
      0.0714285628685752 0.0714285628685752 0.0714285628685752 1.0 
      0.08928571801947573 0.08928571801947573 0.08928571801947573 1.0 
      0.10714287317037625 0.10714287317037627 0.10714287317037625 1.0 
      0.1250000283212768 0.12500002832127677 0.1250000283212768 1.0 
      0.1428571257371504 0.1428571257371504 0.1428571257371504 1.0 
      0.16071428088805093 0.16071428088805093 0.16071428088805093 1.0 
      0.17857143603895145 0.17857143603895145 0.17857143603895145 1.0 
      0.19642859118985195 0.19642859118985198 0.19642859118985195 1.0 
      0.21428568860572558 0.21428568860572558 0.21428568860572558 1.0 
      0.2321428437566261 0.23214284375662614 0.2321428437566261 1.0 
      0.24999999890752664 0.2499999989075267 0.24999999890752664 1.0 
   } 
   MaxAngularMomentum = { 
      Mo = d 
   } 
   MaxSCCIterations = 1 
   OrbitalResolvedSCC = No 
   PolynomialRepulsive = SetForAll {Yes} 
   ReadInitialCharges = Yes 
   SCC = Yes 
   SCCTolerance = 1000000.0 
   SlaterKosterFiles = Type2FileNames{ 
      Prefix = /home/inukai/tango/tests/1element/qe_fit_v2_Mo/ 
      Separator = "-" 
      Suffix = ".skf" 
      } 
   } 
Options { 
   WriteResultsTag = Yes 
} 
ParserOptions { 
   IgnoreUnprocessedNodes = Yes  
} 
