Geometry = GenFormat { 
    <<< "geo_end.gen" 
} 
 
Hamiltonian = DFTB{ 
   KPointsAndWeights = { 
      0.0 0.0 0.0 1.0 
      0.0357143 2.569250000475884e-08 0.0 1.0 
      0.0714286 -3.5217499997367446e-08 0.0 1.0 
      0.10714290000000001 -9.524999994587068e-09 0.0 1.0 
      0.1428571 -2.043499999009177e-08 0.0 1.0 
      0.1785714 5.257500012842118e-09 0.0 1.0 
      0.21428569999999997 -5.565249996963596e-08 0.0 1.0 
      0.25 -2.995999997553695e-08 0.0 1.0 
      0.2857143 -9.086999999335452e-08 0.0 1.0 
      0.32142860000000006 -6.517750001631124e-08 0.0 1.0 
      0.3571429 -1.2608749998173357e-07 0.0 1.0 
      0.3928571 -5.039499997384957e-08 0.0 1.0 
      0.42857139999999994 -1.1130499993927192e-07 0.0 1.0 
      0.4642857 -8.56124999969541e-08 0.0 1.0 
      0.5 -1.4652249996237647e-07 0.0 1.0 
      0.4791667 0.04166649598749998 0.0 1.0 
      0.4583333 0.08333318849750004 0.0 1.0 
      0.4375 0.12499983100749999 0.0 1.0 
      0.4166667 0.1666664735175 0.0 1.0 
      0.3958333 0.2083331660275001 0.0 1.0 
      0.375 0.2499998085375 0.0 1.0 
      0.3541667 0.2916664510475 0.0 1.0 
      0.3333333 0.3333331435575 0.0 1.0 
      0.31481480000000006 0.31481464168250006 0.0 1.0 
      0.2962963 0.296296053205 0.0 1.0 
      0.2777778 0.27777755133 0.0 1.0 
      0.2592593 0.2592590494550001 0.0 1.0 
      0.2407407 0.24074059758 0.0 1.0 
      0.2222222 0.2222220957050001 0.0 1.0 
      0.20370370000000002 0.20370359383000006 0.0 1.0 
      0.1851852 0.18518500535250004 0.0 1.0 
      0.1666667 0.16666650347750003 0.0 1.0 
      0.1481481 0.1481480516025 0.0 1.0 
      0.1296296 0.12962954972750004 0.0 1.0 
      0.1111111 0.11111104785250005 0.0 1.0 
      0.0925926 0.09259254597750002 0.0 1.0 
      0.0740741 0.07407404410250001 0.0 1.0 
      0.0555556 0.05555545562500001 0.0 1.0 
      0.037037 0.03703700375 0.0 1.0 
      0.0185185 0.018518501875 0.0 1.0 
      0.0 0.0 0.0 1.0 
      0.0 0.0 0.055555521078600005 1.0 
      0.0 0.0 0.1111112044209 1.0 
      0.0 0.0 0.1666667254995 1.0 
      0.0 0.0 0.2222222465781 1.0 
      0.0 0.0 0.27777776765670004 1.0 
      0.0 0.0 0.333333450999 1.0 
      0.0 0.0 0.38888897207760004 1.0 
      0.0 0.0 0.4444444931562 1.0 
      0.0 0.0 0.5000001764984999 1.0 
   } 
   MaxAngularMomentum = { 
      N = p 
   } 
   MaxSCCIterations = 1 
   OrbitalResolvedSCC = No 
   PolynomialRepulsive = SetForAll {Yes} 
   ReadInitialCharges = Yes 
   SCC = Yes 
   SCCTolerance = 1000000.0 
   SlaterKosterFiles = Type2FileNames{ 
      Prefix = /home/inukai/tango/tests/1element/qe_fit_v2_N/ 
      Separator = "-" 
      Suffix = ".skf" 
      } 
   } 
Options { 
   WriteResultsTag = Yes 
} 
ParserOptions { 
   IgnoreUnprocessedNodes = Yes  
} 
