Geometry = GenFormat { 
    <<< "geo_end.gen" 
} 
 
Hamiltonian = DFTB{ 
   KPointsAndWeights = { 
      0.0 0.0 0.0 1.0 
      0.0 -0.1 0.0 1.0 
      0.0 -0.2 0.0 1.0 
      0.0 -0.30000000000000004 0.0 1.0 
      0.0 -0.4 0.0 1.0 
      0.0 -0.5 0.0 1.0 
      -0.25 -0.5 0.0 1.0 
      -0.5 -0.5 0.0 1.0 
      -0.5 -0.4166666666666667 0.0 1.0 
      -0.5 -0.33333333333333337 0.0 1.0 
      -0.5 -0.25 0.0 1.0 
      -0.5 -0.16666666666666669 0.0 1.0 
      -0.5 -0.08333333333333337 0.0 1.0 
      -0.5 0.0 0.0 1.0 
      -0.33333333333333337 0.0 0.0 1.0 
      -0.16666666666666669 0.0 0.0 1.0 
      0.0 0.0 0.0 1.0 
      0.0 0.0 -0.25 1.0 
      0.0 0.0 -0.5 1.0 
      0.0 -0.08333333333333333 -0.5 1.0 
      0.0 -0.16666666666666666 -0.5 1.0 
      0.0 -0.25 -0.5 1.0 
      0.0 -0.3333333333333333 -0.5 1.0 
      0.0 -0.41666666666666663 -0.5 1.0 
      0.0 -0.5 -0.5 1.0 
      -0.16666666666666666 -0.5 -0.5 1.0 
      -0.3333333333333333 -0.5 -0.5 1.0 
      -0.5 -0.5 -0.5 1.0 
      -0.5 -0.4285714285714286 -0.5 1.0 
      -0.5 -0.35714285714285715 -0.5 1.0 
      -0.5 -0.2857142857142857 -0.5 1.0 
      -0.5 -0.2142857142857143 -0.5 1.0 
      -0.5 -0.1428571428571429 -0.5 1.0 
      -0.5 -0.07142857142857145 -0.5 1.0 
      -0.5 0.0 -0.5 1.0 
      -0.375 0.0 -0.5 1.0 
      -0.25 0.0 -0.5 1.0 
      -0.125 0.0 -0.5 1.0 
      0.0 0.0 -0.5 1.0 
      -0.5 0.0 0.0 1.0 
      -0.5 0.0 -0.16666666666666666 1.0 
      -0.5 0.0 -0.3333333333333333 1.0 
      -0.5 0.0 -0.5 1.0 
      0.0 -0.5 -0.5 1.0 
      0.0 -0.5 -0.33333333333333337 1.0 
      0.0 -0.5 -0.16666666666666669 1.0 
      0.0 -0.5 0.0 1.0 
      -0.5 -0.5 0.0 1.0 
      -0.5 -0.5 -0.25 1.0 
      -0.5 -0.5 -0.5 1.0 
   } 
   MaxAngularMomentum = { 
      I = d 
   } 
   MaxSCCIterations = 1 
   OrbitalResolvedSCC = No 
   PolynomialRepulsive = SetForAll {Yes} 
   ReadInitialCharges = Yes 
   SCC = Yes 
   SCCTolerance = 1000000.0 
   SlaterKosterFiles = Type2FileNames{ 
      Prefix = /home/inukai/tango/tests/1element/gpaw_fit_v3_I/ 
      Separator = "-" 
      Suffix = ".skf" 
      } 
   } 
Options { 
   WriteResultsTag = Yes 
} 
ParserOptions { 
   IgnoreUnprocessedNodes = Yes  
} 
