Geometry = GenFormat { 
    <<< "geo_end.gen" 
} 
 
Hamiltonian = DFTB{ 
   KPointsAndWeights = { 
      0.0 0.0 0.0 1.0 
      0.0833333 -2.218749999717432e-08 0.0 1.0 
      0.1666667 -9.437499999710377e-08 0.0 1.0 
      0.25 -2.995999997414066e-08 0.0 1.0 
      0.3333333 -5.214749998014985e-08 0.0 1.0 
      0.41666669999999995 -1.243349999924744e-07 0.0 1.0 
      0.5 -1.4652249995958388e-07 0.0 1.0 
      0.4444444 0.11111099570500003 0.0 1.0 
      0.38888890000000004 0.22222200132999997 0.0 1.0 
      0.3333333 0.3333331435575 0.0 1.0 
      0.2916667 0.29166645853749995 0.0 1.0 
      0.25 0.2499998235175 0.0 1.0 
      0.20833330000000003 0.20833318849750002 0.0 1.0 
      0.1666667 0.16666650347750003 0.0 1.0 
      0.125 0.12499995506000001 0.0 1.0 
      0.0833333 0.08333332004000003 0.0 1.0 
      0.04166670000000001 0.041666635020000016 0.0 1.0 
      0.0 0.0 0.0 1.0 
      0.0 0.0 0.166666575712 1.0 
      0.0 0.0 0.3333333133493999 1.0 
      0.0 0.0 0.49999988906139997 1.0 
      0.0714286 -3.521749999867737e-08 0.49999988906139997 1.0 
      0.1428571 -2.0434999994599603e-08 0.49999988906139997 1.0 
      0.21428569999999997 -5.565249998885953e-08 0.49999988906139997 1.0 
      0.2857143 -9.086999999195433e-08 0.49999988906139997 1.0 
      0.3571429 -1.260874999914889e-07 0.49999988906139997 1.0 
      0.42857139999999994 -1.1130499997771907e-07 0.49999988906139997 1.0 
      0.5 -1.4652249995958388e-07 0.49999988906139997 1.0 
      0.4583333 0.0833331884975 0.49999988906139997 1.0 
      0.41666669999999995 0.16666647351750005 0.49999988906139997 1.0 
      0.375 0.24999980853749995 0.49999988906139997 1.0 
      0.3333333 0.3333331435575 0.49999988906139997 1.0 
      0.2962963 0.2962960532050001 0.49999988906139997 1.0 
      0.2592593 0.259259049455 0.49999988906139997 1.0 
      0.2222222 0.22222209570500004 0.49999988906139997 1.0 
      0.1851852 0.18518500535250002 0.49999988906139997 1.0 
      0.1481481 0.14814805160250005 0.49999988906139997 1.0 
      0.1111111 0.11111104785250002 0.49999988906139997 1.0 
      0.0740741 0.07407404410249999 0.49999988906139997 1.0 
      0.037037 0.03703700375000001 0.49999988906139997 1.0 
      0.0 0.0 0.49999988906139997 1.0 
      0.5 -1.4652249995958388e-07 0.49999988906139997 1.0 
      0.5 -1.4652249995958388e-07 0.3749999572774 1.0 
      0.5 -1.4652249995958388e-07 0.24999986356799997 1.0 
      0.5 -1.4652249995958388e-07 0.12499993178399998 1.0 
      0.5 -1.4652249995958388e-07 0.0 1.0 
      0.3333333 0.3333331435575 0.0 1.0 
      0.3333333 0.3333331435575 0.166666575712 1.0 
      0.3333333 0.3333331435575 0.3333333133493999 1.0 
      0.3333333 0.3333331435575 0.49999988906139997 1.0 
   } 
   MaxAngularMomentum = { 
      Mg = p 
   } 
   MaxSCCIterations = 1 
   OrbitalResolvedSCC = No 
   PolynomialRepulsive = SetForAll {Yes} 
   ReadInitialCharges = Yes 
   SCC = Yes 
   SCCTolerance = 1000000.0 
   SlaterKosterFiles = Type2FileNames{ 
      Prefix = /home/inukai/tango/tests/1element/qe_fit_v3_Mg/ 
      Separator = "-" 
      Suffix = ".skf" 
      } 
   } 
Options { 
   WriteResultsTag = Yes 
} 
ParserOptions { 
   IgnoreUnprocessedNodes = Yes  
} 
