Geometry = GenFormat {
8  S
P
1      1      0.000000000000000     10.258009392050001      2.685377236920000
2      1      0.000000000000000      6.717393107950001      0.398743236920000
3      1      0.000000000000000      4.599541892049999      4.174524763080000
4      1      0.000000000000000      1.058925607950000      1.887890763080000
5      1      1.652329500000000      4.599541892049999      2.685377236920000
6      1      1.652329500000000      1.058925607950000      0.398743236920000
7      1      1.652329500000000     10.258009392050001      4.174524763080000
8      1      1.652329500000000      6.717393107950001      1.887890763080000
0.000000000000000      0.000000000000000      0.000000000000000
3.304659000000000      0.000000000000000      0.000000000000000
0.000000000000000     11.316935000000001      0.000000000000000
0.000000000000000      0.000000000000000      4.573268000000000
}
Hamiltonian = DFTB {
  KPointsAndWeights = {
0.0 0.0 0.0 1.0
-0.1 0.0 0.0 1.0
-0.2 0.0 0.0 1.0
-0.30000000000000004 0.0 0.0 1.0
-0.4 0.0 0.0 1.0
-0.5 0.0 0.0 1.0
-0.5 0.0 -0.125 1.0
-0.5 0.0 -0.25 1.0
-0.5 0.0 -0.375 1.0
-0.5 0.0 -0.5 1.0
-0.4 0.0 -0.5 1.0
-0.3 0.0 -0.5 1.0
-0.19999999999999996 0.0 -0.5 1.0
-0.09999999999999998 0.0 -0.5 1.0
0.0 0.0 -0.5 1.0
0.0 0.0 -0.375 1.0
0.0 0.0 -0.25 1.0
0.0 0.0 -0.125 1.0
0.0 0.0 0.0 1.0
0.0 -0.5 0.0 1.0
-0.08333333333333333 -0.5 0.0 1.0
-0.16666666666666666 -0.5 0.0 1.0
-0.25 -0.5 0.0 1.0
-0.3333333333333333 -0.5 0.0 1.0
-0.41666666666666663 -0.5 0.0 1.0
-0.5 -0.5 0.0 1.0
-0.5 -0.5 -0.125 1.0
-0.5 -0.5 -0.25 1.0
-0.5 -0.5 -0.375 1.0
-0.5 -0.5 -0.5 1.0
-0.4285714285714286 -0.5 -0.5 1.0
-0.35714285714285715 -0.5 -0.5 1.0
-0.2857142857142857 -0.5 -0.5 1.0
-0.2142857142857143 -0.5 -0.5 1.0
-0.1428571428571429 -0.5 -0.5 1.0
-0.07142857142857145 -0.5 -0.5 1.0
0.0 -0.5 -0.5 1.0
0.0 -0.5 -0.4 1.0
0.0 -0.5 -0.3 1.0
0.0 -0.5 -0.19999999999999996 1.0
0.0 -0.5 -0.09999999999999998 1.0
0.0 -0.5 0.0 1.0
0.0 0.0 -0.5 1.0
0.0 -0.25 -0.5 1.0
0.0 -0.5 -0.5 1.0
-0.5 -0.5 0.0 1.0
-0.5 -0.25 0.0 1.0
-0.5 0.0 0.0 1.0
-0.5 0.0 -0.5 1.0
-0.5 -0.5 -0.5 1.0
  }
  MaxAngularMomentum = {
    P = d
  }
  MaxSCCIterations = 1
  OrbitalResolvedSCC = No
  PolynomialRepulsive = SetForAll {
Yes
  }
  ReadInitialCharges = Yes
  SCC = Yes
  SCCTolerance = 1000000.0
  SlaterKosterFiles = Type2FileNames {
    Prefix = /home/inukai/tango/tests/1element/gpaw_fit_v3_P/
    Separator = "-"
    Suffix = ".skf"
    LowerCaseTypeName = No
  }
  OldSKInterpolation = No
  Mixer = Broyden {
    MixingParameter = 0.20000000000000001
    CachedIterations = -1
    InverseJacobiWeight = 1.0000000000000000E-002
    MinimalWeight = 1.0000000000000000
    MaximalWeight = 100000.00000000000
    WeightFactor = 1.0000000000000000E-002
  }
  DampXH = No
  EwaldParameter = 0.0000000000000000
  SpinPolarisation = {}
  ElectricField = {}
  Eigensolver = RelativelyRobust {}
  Filling = Fermi {
    Temperature = 0.0000000000000000
    IndependentKFilling = No
  }
  Charge = 0.0000000000000000
  Dispersion = {}
  ThirdOrder = No
  ThirdOrderFull = No
  Differentiation = FiniteDiff {
    Delta = 1.2207031250000000E-004
  }
  ForceEvaluation = "Traditional"
}
Options = {
  WriteResultsTag = Yes
  WriteAutotestTag = No
  WriteDetailedXML = No
  WriteDetailedOut = Yes
  RestartFrequency = 20
  RandomSeed = 0
  WriteHS = No
  WriteRealHS = No
  MinimiseMemoryUsage = No
  ShowFoldedCoords = No
}
ParserOptions = {
  IgnoreUnprocessedNodes = Yes
  ParserVersion = 5
  WriteHSDInput = Yes
  WriteXMLInput = No
  StopAfterParsing = No
}
Driver = {}
ExcitedState = {}
Analysis = {
  ProjectStates = {}
  MullikenAnalysis = Yes
  AtomResolvedEnergies = No
  WriteEigenvectors = No
  WriteBandOut = Yes
  CalculateForces = No
}
