Mg4 O4
1.0
        4.2564840317         0.0000000000         0.0000000000
        0.0000000000         4.2564840317         0.0000000000
        0.0000000000         0.0000000000         4.2564840317
   Mg    O
    4    4
Direct
     0.000000000         0.000000000         0.000000000
    -0.000000000         0.500000000         0.500000000
     0.500000000        -0.000000000         0.500000000
     0.500000000         0.500000000         0.000000000
     0.500000000         0.000000000         0.000000000
     0.500000000         0.500000000         0.500000000
    -0.000000000        -0.000000000         0.500000000
    -0.000000000         0.500000000         0.000000000
