Geometry = GenFormat {
2  S
Cd
1      1      0.000000030371591      1.753504548686649      4.327956000000000
2      1      1.518579469628410      0.876752300645893      1.442652000000000
0.000000000000000      0.000000000000000      0.000000000000000
3.037159000000000      0.000000000000000      0.000000000000000
-1.518579499999999      2.630256849332542      0.000000000000000
0.000000000000000      0.000000000000000      5.770608000000000
}
Hamiltonian = DFTB {
  KPointsAndWeights = {
0.0 0.0 0.0 1.0
0.0833333 -2.218749999610018e-08 0.0 1.0
0.16666669999999997 -9.437499999446952e-08 0.0 1.0
0.24999999999999997 -2.995999998139379e-08 0.0 1.0
0.3333333 -5.2147499961950874e-08 0.0 1.0
0.41666669999999995 -1.2433499999353307e-07 0.0 1.0
0.49999999999999994 -1.4652249993875066e-07 0.0 1.0
0.44444439999999996 0.11111099570500003 0.0 1.0
0.3888889 0.22222200133 0.0 1.0
0.3333333 0.3333331435575 0.0 1.0
0.29166669999999995 0.29166645853749995 0.0 1.0
0.24999999999999997 0.2499998235175 0.0 1.0
0.2083333 0.2083331884975 0.0 1.0
0.16666669999999997 0.16666650347750003 0.0 1.0
0.12499999999999999 0.12499995505999997 0.0 1.0
0.0833333 0.08333332004000002 0.0 1.0
0.041666699999999994 0.04166663502 0.0 1.0
0.0 0.0 0.0 1.0
0.0 0.0 0.16666665543839998 1.0
0.0 0.0 0.33333331087679996 1.0
0.0 0.0 0.4999999663151999 1.0
0.0714286 -3.521749999374472e-08 0.4999999663151999 1.0
0.1428571 -2.043499998522026e-08 0.4999999663151999 1.0
0.21428569999999997 -5.5652499970294245e-08 0.4999999663151999 1.0
0.2857143 -9.086999998612615e-08 0.4999999663151999 1.0
0.35714289999999993 -1.2608749996661853e-07 0.4999999663151999 1.0
0.42857139999999994 -1.1130499994058849e-07 0.4999999663151999 1.0
0.49999999999999994 -1.4652249993875066e-07 0.4999999663151999 1.0
0.4583333 0.08333318849749997 0.4999999663151999 1.0
0.41666669999999995 0.16666647351750005 0.4999999663151999 1.0
0.37499999999999994 0.24999980853749998 0.4999999663151999 1.0
0.3333333 0.3333331435575 0.4999999663151999 1.0
0.29999999999999993 0.29999975358000014 0.4999999663151999 1.0
0.2666667 0.26666645020500007 0.4999999663151999 1.0
0.2333333 0.23333319683 0.4999999663151999 1.0
0.2 0.199999893455 0.4999999663151999 1.0
0.16666669999999997 0.16666650347750003 0.4999999663151999 1.0
0.13333329999999996 0.13333325010250002 0.4999999663151999 1.0
0.1 0.0999999467275 0.4999999663151999 1.0
0.06666669999999998 0.06666664335250001 0.4999999663151999 1.0
0.033333299999999996 0.033333303375000005 0.4999999663151999 1.0
0.0 0.0 0.4999999663151999 1.0
0.49999999999999994 -1.4652249993875066e-07 0.4999999663151999 1.0
0.49999999999999994 -1.4652249993875066e-07 0.33333331087679996 1.0
0.49999999999999994 -1.4652249993875066e-07 0.16666665543839998 1.0
0.49999999999999994 -1.4652249993875066e-07 0.0 1.0
0.3333333 0.3333331435575 0.0 1.0
0.3333333 0.3333331435575 0.16666665543839998 1.0
0.3333333 0.3333331435575 0.33333331087679996 1.0
0.3333333 0.3333331435575 0.4999999663151999 1.0
  }
  MaxAngularMomentum = {
    Cd = d
  }
  MaxSCCIterations = 1
  OrbitalResolvedSCC = No
  PolynomialRepulsive = SetForAll {
Yes
  }
  ReadInitialCharges = Yes
  SCC = Yes
  SCCTolerance = 1000000.0
  SlaterKosterFiles = Type2FileNames {
    Prefix = /home/inukai/tango/tests/1element/qe_fit_v3_Cd/
    Separator = "-"
    Suffix = ".skf"
    LowerCaseTypeName = No
  }
  OldSKInterpolation = No
  Mixer = Broyden {
    MixingParameter = 0.20000000000000001
    CachedIterations = -1
    InverseJacobiWeight = 1.0000000000000000E-002
    MinimalWeight = 1.0000000000000000
    MaximalWeight = 100000.00000000000
    WeightFactor = 1.0000000000000000E-002
  }
  DampXH = No
  EwaldParameter = 0.0000000000000000
  SpinPolarisation = {}
  ElectricField = {}
  Eigensolver = RelativelyRobust {}
  Filling = Fermi {
    Temperature = 0.0000000000000000
    IndependentKFilling = No
  }
  Charge = 0.0000000000000000
  Dispersion = {}
  ThirdOrder = No
  ThirdOrderFull = No
  Differentiation = FiniteDiff {
    Delta = 1.2207031250000000E-004
  }
  ForceEvaluation = "Traditional"
}
Options = {
  WriteResultsTag = Yes
  WriteAutotestTag = No
  WriteDetailedXML = No
  WriteDetailedOut = Yes
  RestartFrequency = 20
  RandomSeed = 0
  WriteHS = No
  WriteRealHS = No
  MinimiseMemoryUsage = No
  ShowFoldedCoords = No
}
ParserOptions = {
  IgnoreUnprocessedNodes = Yes
  ParserVersion = 5
  WriteHSDInput = Yes
  WriteXMLInput = No
  StopAfterParsing = No
}
Driver = {}
ExcitedState = {}
Analysis = {
  ProjectStates = {}
  MullikenAnalysis = Yes
  AtomResolvedEnergies = No
  WriteEigenvectors = No
  WriteBandOut = Yes
  CalculateForces = No
}
