&CONTROL
   calculation      = 'bands'
   verbosity        = 'high'
   restart_mode     = 'restart'
   tstress          = .true.
   tprnfor          = .true.
   disk_io          = 'low'
/
&SYSTEM
   ecutwfc          = 40.0
   ecutrho          = 200.0
   occupations      = 'smearing'
   degauss          = 0.001
   smearing         = 'gaussian'
   input_dft        = 'PBE'
   ntyp             = 1
   nat              = 2
   ibrav            = 0
/
&ELECTRONS
   electron_maxstep = 250
   scf_must_converge = .false.
   conv_thr         = 1e-07
   mixing_beta      = 0.1
/
&IONS
/
&CELL
/

ATOMIC_SPECIES
Cd 112.414 cd_pbe_v1.uspp.F.UPF

K_POINTS crystal_b
50
0.00000000000000 0.00000000000000 0.00000000000000 0
0.08333333333333 0.00000000000000 0.00000000000000 0
0.16666666666667 0.00000000000000 0.00000000000000 0
0.25000000000000 0.00000000000000 0.00000000000000 0
0.33333333333333 0.00000000000000 0.00000000000000 0
0.41666666666667 0.00000000000000 0.00000000000000 0
0.50000000000000 0.00000000000000 0.00000000000000 0
0.44444444444444 0.11111111111111 0.00000000000000 0
0.38888888888889 0.22222222222222 0.00000000000000 0
0.33333333333333 0.33333333333333 0.00000000000000 0
0.29166666666667 0.29166666666667 0.00000000000000 0
0.25000000000000 0.25000000000000 0.00000000000000 0
0.20833333333333 0.20833333333333 0.00000000000000 0
0.16666666666667 0.16666666666667 0.00000000000000 0
0.12500000000000 0.12500000000000 0.00000000000000 0
0.08333333333333 0.08333333333333 0.00000000000000 0
0.04166666666667 0.04166666666667 0.00000000000000 0
0.00000000000000 0.00000000000000 0.00000000000000 0
0.00000000000000 0.00000000000000 0.16666666666667 0
0.00000000000000 0.00000000000000 0.33333333333333 0
0.00000000000000 0.00000000000000 0.50000000000000 0
0.07142857142857 0.00000000000000 0.50000000000000 0
0.14285714285714 0.00000000000000 0.50000000000000 0
0.21428571428571 0.00000000000000 0.50000000000000 0
0.28571428571429 0.00000000000000 0.50000000000000 0
0.35714285714286 0.00000000000000 0.50000000000000 0
0.42857142857143 0.00000000000000 0.50000000000000 0
0.50000000000000 0.00000000000000 0.50000000000000 0
0.45833333333333 0.08333333333333 0.50000000000000 0
0.41666666666667 0.16666666666667 0.50000000000000 0
0.37500000000000 0.25000000000000 0.50000000000000 0
0.33333333333333 0.33333333333333 0.50000000000000 0
0.30000000000000 0.30000000000000 0.50000000000000 0
0.26666666666667 0.26666666666667 0.50000000000000 0
0.23333333333333 0.23333333333333 0.50000000000000 0
0.20000000000000 0.20000000000000 0.50000000000000 0
0.16666666666667 0.16666666666667 0.50000000000000 0
0.13333333333333 0.13333333333333 0.50000000000000 0
0.10000000000000 0.10000000000000 0.50000000000000 0
0.06666666666667 0.06666666666667 0.50000000000000 0
0.03333333333333 0.03333333333333 0.50000000000000 0
0.00000000000000 0.00000000000000 0.50000000000000 0
0.50000000000000 0.00000000000000 0.50000000000000 0
0.50000000000000 0.00000000000000 0.33333333333333 0
0.50000000000000 0.00000000000000 0.16666666666667 0
0.50000000000000 0.00000000000000 0.00000000000000 0
0.33333333333333 0.33333333333333 0.00000000000000 0
0.33333333333333 0.33333333333333 0.16666666666667 0
0.33333333333333 0.33333333333333 0.33333333333333 0
0.33333333333333 0.33333333333333 0.50000000000000 0

CELL_PARAMETERS angstrom
3.03715900000000 0.00000000000000 0.00000000000000
-1.51857950000000 2.63025684933254 0.00000000000000
0.00000000000000 0.00000000000000 5.77060800000000

ATOMIC_POSITIONS angstrom
Cd 0.0000000304 1.7535045487 4.3279560000 
Cd 1.5185794696 0.8767523006 1.4426520000 

