Geometry = GenFormat { 
    <<< "geo_end.gen" 
} 
 
Hamiltonian = DFTB{ 
   KPointsAndWeights = { 
      0.0 0.0 0.0 1.0 
      0.08333333333333333 0.0 0.0 1.0 
      0.16666666666666666 0.0 0.0 1.0 
      0.25 0.0 0.0 1.0 
      0.3333333333333333 0.0 0.0 1.0 
      0.41666666666666663 0.0 0.0 1.0 
      0.5 0.0 0.0 1.0 
      0.4444444444444444 0.1111111111111111 0.0 1.0 
      0.3888888888888889 0.2222222222222222 0.0 1.0 
      0.3333333333333333 0.3333333333333333 0.0 1.0 
      0.29166666666666663 0.29166666666666663 0.0 1.0 
      0.25 0.25 0.0 1.0 
      0.20833333333333331 0.20833333333333331 0.0 1.0 
      0.16666666666666666 0.16666666666666666 0.0 1.0 
      0.125 0.125 0.0 1.0 
      0.08333333333333331 0.08333333333333331 0.0 1.0 
      0.041666666666666685 0.041666666666666685 0.0 1.0 
      0.0 0.0 0.0 1.0 
      0.0 0.0 0.16666666666666666 1.0 
      0.0 0.0 0.3333333333333333 1.0 
      0.0 0.0 0.5 1.0 
      0.07142857142857142 0.0 0.5 1.0 
      0.14285714285714285 0.0 0.5 1.0 
      0.21428571428571427 0.0 0.5 1.0 
      0.2857142857142857 0.0 0.5 1.0 
      0.3571428571428571 0.0 0.5 1.0 
      0.42857142857142855 0.0 0.5 1.0 
      0.5 0.0 0.5 1.0 
      0.4583333333333333 0.08333333333333333 0.5 1.0 
      0.41666666666666663 0.16666666666666666 0.5 1.0 
      0.375 0.25 0.5 1.0 
      0.3333333333333333 0.3333333333333333 0.5 1.0 
      0.3 0.3 0.5 1.0 
      0.26666666666666666 0.26666666666666666 0.5 1.0 
      0.2333333333333333 0.2333333333333333 0.5 1.0 
      0.19999999999999998 0.19999999999999998 0.5 1.0 
      0.16666666666666666 0.16666666666666666 0.5 1.0 
      0.1333333333333333 0.1333333333333333 0.5 1.0 
      0.09999999999999998 0.09999999999999998 0.5 1.0 
      0.06666666666666665 0.06666666666666665 0.5 1.0 
      0.033333333333333326 0.033333333333333326 0.5 1.0 
      0.0 0.0 0.5 1.0 
      0.5 0.0 0.5 1.0 
      0.5 0.0 0.33333333333333337 1.0 
      0.5 0.0 0.16666666666666669 1.0 
      0.5 0.0 0.0 1.0 
      0.3333333333333333 0.3333333333333333 0.0 1.0 
      0.3333333333333333 0.3333333333333333 0.16666666666666666 1.0 
      0.3333333333333333 0.3333333333333333 0.3333333333333333 1.0 
      0.3333333333333333 0.3333333333333333 0.5 1.0 
   } 
   MaxAngularMomentum = { 
      Zn = d 
   } 
   MaxSCCIterations = 1 
   OrbitalResolvedSCC = No 
   PolynomialRepulsive = SetForAll {Yes} 
   ReadInitialCharges = Yes 
   SCC = Yes 
   SCCTolerance = 1000000.0 
   SlaterKosterFiles = Type2FileNames{ 
      Prefix = /home/inukai/tango/tests/1element/gpaw_fit_v3_Zn/ 
      Separator = "-" 
      Suffix = ".skf" 
      } 
   } 
Options { 
   WriteResultsTag = Yes 
} 
ParserOptions { 
   IgnoreUnprocessedNodes = Yes  
} 
