Geometry = GenFormat {
1  S
Sb
1      1      0.000000000000000      0.000000000000000      0.000000000000000
0.000000000000000      0.000000000000000      0.000000000000000
-1.894500000000000      1.894500000000000      1.894500000000000
1.894500000000000     -1.894500000000000      1.894500000000000
1.894500000000000      1.894500000000000     -1.894500000000000
}
Hamiltonian = DFTB {
  KPointsAndWeights = {
0.0 0.0 0.0 1.0
0.035714310301801055 -0.035714310301801055 0.035714310301801055 1.0
0.0714285628685752 -0.0714285628685752 0.0714285628685752 1.0
0.10714287317037625 -0.10714287317037625 0.10714287317037625 1.0
0.1428571257371504 -0.1428571257371504 0.1428571257371504 1.0
0.17857143603895145 -0.17857143603895145 0.17857143603895145 1.0
0.21428568860572558 -0.21428568860572558 0.21428568860572558 1.0
0.2499999989075266 -0.2499999989075266 0.2499999989075266 1.0
0.2857143092093277 -0.2857143092093277 0.2857143092093277 1.0
0.3214285617761018 -0.3214285617761018 0.3214285617761018 1.0
0.3571428720779029 -0.3571428720779029 0.3571428720779029 1.0
0.3928571246446771 -0.3928571246446771 0.3928571246446771 1.0
0.4285714349464781 -0.4285714349464781 0.4285714349464781 1.0
0.4642856875132522 -0.4642856875132522 0.4642856875132522 1.0
0.4999999978150532 -0.4999999978150532 0.4999999978150532 1.0
0.44999996339253173 -0.44999996339253173 0.4999999978150532 1.0
0.4000000444400642 -0.4000000444400642 0.4999999978150534 1.0
0.3500000100175427 -0.3500000100175427 0.4999999978150534 1.0
0.29999997559502123 -0.29999997559502123 0.4999999978150533 1.0
0.24999999890752664 -0.24999999890752664 0.5000000555500802 1.0
0.2000000222200321 -0.2000000222200321 0.4999999978150534 1.0
0.14999998779751061 -0.14999998779751061 0.4999999978150534 1.0
0.09999995337498918 -0.09999995337498918 0.4999999978150533 1.0
0.0500000344225215 -0.0500000344225215 0.4999999978150533 1.0
-1.698138501566845e-17 1.698138501566845e-17 0.4999999978150532 1.0
1.8257921075212487e-18 -1.8257921075212487e-18 0.4545454420618617 1.0
-1.2842352507907324e-17 1.2842352507907324e-17 0.4090908863086702 1.0
4.100649893194902e-18 -4.100649893194902e-18 0.36363633055547856 1.0
7.102253508119201e-18 -7.102253508119201e-18 0.3181817748022871 1.0
8.239682400956028e-18 -8.239682400956028e-18 0.2727272190490955 1.0
-6.61923182522787e-18 6.61923182522787e-18 0.22727277876595775 1.0
-5.481802932391043e-18 5.481802932391043e-18 0.1818182230127662 1.0
-3.878330359032348e-18 3.878330359032348e-18 0.13636366725957466 1.0
-2.7409014661955216e-18 2.7409014661955216e-18 0.0909091115063831 1.0
-1.3704507330977608e-18 1.3704507330977608e-18 0.04545455575319155 1.0
0.0 0.0 0.0 1.0
0.017857155150900528 0.017857155150900528 0.017857155150900528 1.0
0.035714310301801055 0.035714310301801055 0.035714310301801055 1.0
0.05357140771767466 0.05357140771767466 0.05357140771767466 1.0
0.0714285628685752 0.0714285628685752 0.0714285628685752 1.0
0.08928571801947573 0.08928571801947573 0.08928571801947573 1.0
0.10714287317037625 0.10714287317037625 0.10714287317037625 1.0
0.12500002832127677 0.12500002832127677 0.12500002832127677 1.0
0.1428571257371504 0.1428571257371504 0.1428571257371504 1.0
0.1607142808880509 0.1607142808880509 0.1607142808880509 1.0
0.17857143603895145 0.17857143603895145 0.17857143603895145 1.0
0.19642859118985195 0.19642859118985195 0.19642859118985195 1.0
0.21428568860572558 0.21428568860572555 0.21428568860572558 1.0
0.2321428437566261 0.23214284375662605 0.2321428437566261 1.0
0.2499999989075266 0.24999999890752664 0.2499999989075266 1.0
  }
  MaxAngularMomentum = {
    Sb = d
  }
  MaxSCCIterations = 1
  OrbitalResolvedSCC = No
  PolynomialRepulsive = SetForAll {
Yes
  }
  ReadInitialCharges = Yes
  SCC = Yes
  SCCTolerance = 1000000.0
  SlaterKosterFiles = Type2FileNames {
    Prefix = /home/inukai/tango/tests/1element/qe_fit_v2_Sb/
    Separator = "-"
    Suffix = ".skf"
    LowerCaseTypeName = No
  }
  OldSKInterpolation = No
  Mixer = Broyden {
    MixingParameter = 0.20000000000000001
    CachedIterations = -1
    InverseJacobiWeight = 1.0000000000000000E-002
    MinimalWeight = 1.0000000000000000
    MaximalWeight = 100000.00000000000
    WeightFactor = 1.0000000000000000E-002
  }
  DampXH = No
  EwaldParameter = 0.0000000000000000
  SpinPolarisation = {}
  ElectricField = {}
  Eigensolver = RelativelyRobust {}
  Filling = Fermi {
    Temperature = 0.0000000000000000
    IndependentKFilling = No
  }
  Charge = 0.0000000000000000
  Dispersion = {}
  ThirdOrder = No
  ThirdOrderFull = No
  Differentiation = FiniteDiff {
    Delta = 1.2207031250000000E-004
  }
  ForceEvaluation = "Traditional"
}
Options = {
  WriteResultsTag = Yes
  WriteAutotestTag = No
  WriteDetailedXML = No
  WriteDetailedOut = Yes
  RestartFrequency = 20
  RandomSeed = 0
  WriteHS = No
  WriteRealHS = No
  MinimiseMemoryUsage = No
  ShowFoldedCoords = No
}
ParserOptions = {
  IgnoreUnprocessedNodes = Yes
  ParserVersion = 5
  WriteHSDInput = Yes
  WriteXMLInput = No
  StopAfterParsing = No
}
Driver = {}
ExcitedState = {}
Analysis = {
  ProjectStates = {}
  MullikenAnalysis = Yes
  AtomResolvedEnergies = No
  WriteEigenvectors = No
  WriteBandOut = Yes
  CalculateForces = No
}
