Geometry = GenFormat {
3  S
Se
1      1      0.991031461140000      0.000000000000000      1.683259316500740
2      1     -0.495515730570000      0.858258421296851      3.366518649834073
3      1      1.766803269430001      3.060193029631565      5.049777983167406
0.000000000000000      0.000000000000000      0.000000000000000
4.524638000000000      0.000000000000000      0.000000000000000
-2.262318999999999      3.918451450928416      0.000000000000000
0.000000000000000      0.000000000000000      5.049778000000000
}
Hamiltonian = DFTB {
  KPointsAndWeights = {
0.0 0.0 0.0 1.0
0.1 -4.66249999989235e-08 0.0 1.0
0.2 -6.647499986544439e-09 0.0 1.0
0.3 -5.327249998430916e-08 0.0 1.0
0.4 -9.989749998439144e-08 0.0 1.0
0.5 -1.4652249998215617e-07 0.0 1.0
0.4444444 0.11111099570500002 0.0 1.0
0.3888889 0.22222200133 0.0 1.0
0.3333333 0.33333314355750004 0.0 1.0
0.2857143 0.2857141139925001 0.0 1.0
0.23809519999999998 0.23809504782500004 0.0 1.0
0.19047619999999998 0.19047601826 0.0 1.0
0.1428571 0.14285703869500005 0.0 1.0
0.09523809999999999 0.09523800913 0.0 1.0
0.047619 0.047619029565000005 0.0 1.0
0.0 0.0 0.0 1.0
0.0 0.0 0.12499994845580001 1.0
0.0 0.0 0.24999989691160002 1.0
0.0 0.0 0.3749998453674 1.0
0.0 0.0 0.49999990542940004 1.0
0.08333329999999999 -2.218749999538989e-08 0.49999990542940004 1.0
0.16666669999999997 -9.437499998750778e-08 0.49999990542940004 1.0
0.25 -2.9959999967757054e-08 0.49999990542940004 1.0
0.3333333 -5.2147499966984996e-08 0.49999990542940004 1.0
0.4166667 -1.2433500000059796e-07 0.49999990542940004 1.0
0.5 -1.4652249998215617e-07 0.49999990542940004 1.0
0.4444444 0.11111099570500002 0.49999990542940004 1.0
0.3888889 0.22222200133 0.49999990542940004 1.0
0.3333333 0.33333314355750004 0.49999990542940004 1.0
0.2916667 0.29166645853750006 0.49999990542940004 1.0
0.25 0.2499998235175 0.49999990542940004 1.0
0.2083333 0.20833318849750004 0.49999990542940004 1.0
0.16666669999999997 0.1666665034775 0.49999990542940004 1.0
0.125 0.12499995505999997 0.49999990542940004 1.0
0.08333329999999999 0.08333332004000003 0.49999990542940004 1.0
0.041666699999999994 0.041666635020000016 0.49999990542940004 1.0
0.0 0.0 0.49999990542940004 1.0
0.5 -1.4652249998215617e-07 0.49999990542940004 1.0
0.5 -1.4652249998215617e-07 0.3999998573798 1.0
0.5 -1.4652249998215617e-07 0.2999999209364 1.0
0.5 -1.4652249998215617e-07 0.19999998449300002 1.0
0.5 -1.4652249998215617e-07 0.09999993644340001 1.0
0.5 -1.4652249998215617e-07 0.0 1.0
0.3333333 0.33333314355750004 0.0 1.0
0.3333333 0.33333314355750004 0.0833333361726 1.0
0.3333333 0.33333314355750004 0.1666666723452 1.0
0.3333333 0.33333314355750004 0.24999989691160002 1.0
0.3333333 0.33333314355750004 0.3333332330842 1.0
0.3333333 0.33333314355750004 0.41666656925679996 1.0
0.3333333 0.33333314355750004 0.49999990542940004 1.0
  }
  MaxAngularMomentum = {
    Se = d
  }
  MaxSCCIterations = 1
  OrbitalResolvedSCC = No
  PolynomialRepulsive = SetForAll {
Yes
  }
  ReadInitialCharges = Yes
  SCC = Yes
  SCCTolerance = 1000000.0
  SlaterKosterFiles = Type2FileNames {
    Prefix = /home/inukai/tango/tests/1element/qe_fit_v3_Se/
    Separator = "-"
    Suffix = ".skf"
    LowerCaseTypeName = No
  }
  OldSKInterpolation = No
  Mixer = Broyden {
    MixingParameter = 0.20000000000000001
    CachedIterations = -1
    InverseJacobiWeight = 1.0000000000000000E-002
    MinimalWeight = 1.0000000000000000
    MaximalWeight = 100000.00000000000
    WeightFactor = 1.0000000000000000E-002
  }
  DampXH = No
  EwaldParameter = 0.0000000000000000
  SpinPolarisation = {}
  ElectricField = {}
  Eigensolver = RelativelyRobust {}
  Filling = Fermi {
    Temperature = 0.0000000000000000
    IndependentKFilling = No
  }
  Charge = 0.0000000000000000
  Dispersion = {}
  ThirdOrder = No
  ThirdOrderFull = No
  Differentiation = FiniteDiff {
    Delta = 1.2207031250000000E-004
  }
  ForceEvaluation = "Traditional"
}
Options = {
  WriteResultsTag = Yes
  WriteAutotestTag = No
  WriteDetailedXML = No
  WriteDetailedOut = Yes
  RestartFrequency = 20
  RandomSeed = 0
  WriteHS = No
  WriteRealHS = No
  MinimiseMemoryUsage = No
  ShowFoldedCoords = No
}
ParserOptions = {
  IgnoreUnprocessedNodes = Yes
  ParserVersion = 5
  WriteHSDInput = Yes
  WriteXMLInput = No
  StopAfterParsing = No
}
Driver = {}
ExcitedState = {}
Analysis = {
  ProjectStates = {}
  MullikenAnalysis = Yes
  AtomResolvedEnergies = No
  WriteEigenvectors = No
  WriteBandOut = Yes
  CalculateForces = No
}
