Geometry = GenFormat {
2  S
Zr
1      1      0.000000000000000      0.000000000000000      0.000000000000000
2      1     -0.000000000000000      1.865996070020870      2.573500000000000
0.000000000000000      0.000000000000000      0.000000000000000
3.232000000000000      0.000000000000000      0.000000000000000
-1.616000000000000      2.798994105031306      0.000000000000000
0.000000000000000      0.000000000000000      5.147000000000000
}
Hamiltonian = DFTB {
  KPointsAndWeights = {
0.0 0.0 0.0 1.0
0.0357143 2.5692500003625106e-08 0.0 1.0
0.0714286 -3.521749999080005e-08 0.0 1.0
0.10714290000000001 -9.524999995674096e-09 0.0 1.0
0.1428571 -2.043499998423997e-08 0.0 1.0
0.17857140000000002 5.257500010885984e-09 0.0 1.0
0.21428569999999997 -5.565249997334372e-08 0.0 1.0
0.25 -2.9959999995887514e-08 0.0 1.0
0.2857143 -9.086999998011722e-08 0.0 1.0
0.3214286 -6.517750000266101e-08 0.0 1.0
0.35714289999999993 -1.2608749993727408e-07 0.0 1.0
0.3928571 -5.03949999767349e-08 0.0 1.0
0.42857139999999994 -1.1130499994668744e-07 0.0 1.0
0.4642857 -8.561249996244607e-08 0.0 1.0
0.5 -1.465224999677381e-07 0.0 1.0
0.4791667 0.04166649598750003 0.0 1.0
0.4583333 0.08333318849750002 0.0 1.0
0.4375 0.12499983100750008 0.0 1.0
0.4166667 0.1666664735175 0.0 1.0
0.3958333 0.20833316602750002 0.0 1.0
0.375 0.2499998085375 0.0 1.0
0.3541667 0.2916664510475 0.0 1.0
0.3333333 0.33333314355750004 0.0 1.0
0.31481480000000006 0.31481464168250006 0.0 1.0
0.2962963 0.2962960532050001 0.0 1.0
0.2777778000000001 0.27777755133000004 0.0 1.0
0.2592593 0.25925904945500006 0.0 1.0
0.2407407 0.24074059758000008 0.0 1.0
0.2222222 0.2222220957050001 0.0 1.0
0.20370370000000002 0.20370359383000006 0.0 1.0
0.1851852 0.18518500535250004 0.0 1.0
0.1666667 0.16666650347750003 0.0 1.0
0.1481481 0.14814805160250005 0.0 1.0
0.1296296 0.12962954972750004 0.0 1.0
0.1111111 0.11111104785250005 0.0 1.0
0.0925926 0.09259254597750002 0.0 1.0
0.0740741 0.07407404410250001 0.0 1.0
0.0555556 0.05555545562500001 0.0 1.0
0.037037 0.03703700375 0.0 1.0
0.0185185 0.018518501875 0.0 1.0
0.0 0.0 0.0 1.0
0.0 0.0 0.055555577376000004 1.0
0.0 0.0 0.11111115475200001 1.0
0.0 0.0 0.16666657287679998 1.0
0.0 0.0 0.2222221502528 1.0
0.0 0.0 0.2777777276288 1.0
0.0 0.0 0.3333333050048 1.0
0.0 0.0 0.3888887231296 1.0
0.0 0.0 0.4444443005056 1.0
0.0 0.0 0.4999998778816 1.0
  }
  MaxAngularMomentum = {
    Zr = d
  }
  MaxSCCIterations = 1
  OrbitalResolvedSCC = No
  PolynomialRepulsive = SetForAll {
Yes
  }
  ReadInitialCharges = Yes
  SCC = Yes
  SCCTolerance = 1000000.0
  SlaterKosterFiles = Type2FileNames {
    Prefix = /home/inukai/tango/tests/1element/qe_fit_v2_Zr/
    Separator = "-"
    Suffix = ".skf"
    LowerCaseTypeName = No
  }
  OldSKInterpolation = No
  Mixer = Broyden {
    MixingParameter = 0.20000000000000001
    CachedIterations = -1
    InverseJacobiWeight = 1.0000000000000000E-002
    MinimalWeight = 1.0000000000000000
    MaximalWeight = 100000.00000000000
    WeightFactor = 1.0000000000000000E-002
  }
  DampXH = No
  EwaldParameter = 0.0000000000000000
  SpinPolarisation = {}
  ElectricField = {}
  Eigensolver = RelativelyRobust {}
  Filling = Fermi {
    Temperature = 0.0000000000000000
    IndependentKFilling = No
  }
  Charge = 0.0000000000000000
  Dispersion = {}
  ThirdOrder = No
  ThirdOrderFull = No
  Differentiation = FiniteDiff {
    Delta = 1.2207031250000000E-004
  }
  ForceEvaluation = "Traditional"
}
Options = {
  WriteResultsTag = Yes
  WriteAutotestTag = No
  WriteDetailedXML = No
  WriteDetailedOut = Yes
  RestartFrequency = 20
  RandomSeed = 0
  WriteHS = No
  WriteRealHS = No
  MinimiseMemoryUsage = No
  ShowFoldedCoords = No
}
ParserOptions = {
  IgnoreUnprocessedNodes = Yes
  ParserVersion = 5
  WriteHSDInput = Yes
  WriteXMLInput = No
  StopAfterParsing = No
}
Driver = {}
ExcitedState = {}
Analysis = {
  ProjectStates = {}
  MullikenAnalysis = Yes
  AtomResolvedEnergies = No
  WriteEigenvectors = No
  WriteBandOut = Yes
  CalculateForces = No
}
