Geometry = GenFormat { 
    <<< "geo_end.gen" 
} 
 
Hamiltonian = DFTB{ 
   KPointsAndWeights = { 
      0.0 0.0 0.0 1.0 
      0.038461538461538464 0.0 0.0 1.0 
      0.07692307692307693 0.0 0.0 1.0 
      0.11538461538461539 0.0 0.0 1.0 
      0.15384615384615385 0.0 0.0 1.0 
      0.19230769230769232 0.0 0.0 1.0 
      0.23076923076923078 0.0 0.0 1.0 
      0.2692307692307693 0.0 0.0 1.0 
      0.3076923076923077 0.0 0.0 1.0 
      0.34615384615384615 0.0 0.0 1.0 
      0.38461538461538464 0.0 0.0 1.0 
      0.42307692307692313 0.0 0.0 1.0 
      0.46153846153846156 0.0 0.0 1.0 
      0.5 0.0 0.0 1.0 
      0.4791666666666667 0.041666666666666664 0.0 1.0 
      0.4583333333333333 0.08333333333333333 0.0 1.0 
      0.4375 0.125 0.0 1.0 
      0.41666666666666663 0.16666666666666666 0.0 1.0 
      0.3958333333333333 0.20833333333333331 0.0 1.0 
      0.375 0.25 0.0 1.0 
      0.35416666666666663 0.29166666666666663 0.0 1.0 
      0.3333333333333333 0.3333333333333333 0.0 1.0 
      0.3125 0.3125 0.0 1.0 
      0.29166666666666663 0.29166666666666663 0.0 1.0 
      0.2708333333333333 0.2708333333333333 0.0 1.0 
      0.25 0.25 0.0 1.0 
      0.22916666666666666 0.22916666666666666 0.0 1.0 
      0.20833333333333331 0.20833333333333331 0.0 1.0 
      0.1875 0.1875 0.0 1.0 
      0.16666666666666666 0.16666666666666666 0.0 1.0 
      0.14583333333333331 0.14583333333333331 0.0 1.0 
      0.125 0.125 0.0 1.0 
      0.10416666666666666 0.10416666666666666 0.0 1.0 
      0.08333333333333331 0.08333333333333331 0.0 1.0 
      0.0625 0.0625 0.0 1.0 
      0.041666666666666685 0.041666666666666685 0.0 1.0 
      0.020833333333333315 0.020833333333333315 0.0 1.0 
      0.0 0.0 0.0 1.0 
      0.0 0.0 0.041666666666666664 1.0 
      0.0 0.0 0.08333333333333333 1.0 
      0.0 0.0 0.125 1.0 
      0.0 0.0 0.16666666666666666 1.0 
      0.0 0.0 0.20833333333333331 1.0 
      0.0 0.0 0.25 1.0 
      0.0 0.0 0.29166666666666663 1.0 
      0.0 0.0 0.3333333333333333 1.0 
      0.0 0.0 0.375 1.0 
      0.0 0.0 0.41666666666666663 1.0 
      0.0 0.0 0.4583333333333333 1.0 
      0.0 0.0 0.5 1.0 
   } 
   MaxAngularMomentum = { 
      Se = d 
   } 
   MaxSCCIterations = 1 
   OrbitalResolvedSCC = No 
   PolynomialRepulsive = SetForAll {Yes} 
   ReadInitialCharges = Yes 
   SCC = Yes 
   SCCTolerance = 1000000.0 
   SlaterKosterFiles = Type2FileNames{ 
      Prefix = /home/inukai/tango/tests/1element/gpaw_fit_Se/ 
      Separator = "-" 
      Suffix = ".skf" 
      } 
   } 
Options { 
   WriteResultsTag = Yes 
} 
ParserOptions { 
   IgnoreUnprocessedNodes = Yes  
} 
