Geometry = GenFormat {
4  S
C
1      1      0.000000000000000      0.000000000000000      6.630590250000001
2      1      0.000000000000000      0.000000000000000      2.210196750000000
3      1     -0.000000012342845      1.425228983789310      6.630590250000001
4      1      1.234284512342845      0.712614481205438      2.210196750000000
0.000000000000000      0.000000000000000      0.000000000000000
2.468569000000000      0.000000000000000      0.000000000000000
-1.234284500000000      2.137843464994748      0.000000000000000
0.000000000000000      0.000000000000000      8.840787000000001
}
Hamiltonian = DFTB {
  KPointsAndWeights = {
0.0 0.0 0.0 1.0
0.0714286 -3.5217499995228496e-08 0.0 1.0
0.1428571 -2.043499998601564e-08 0.0 1.0
0.2142857 -5.565249998876638e-08 0.0 1.0
0.2857143 -9.086999997647263e-08 0.0 1.0
0.3571429 -1.2608749995064887e-07 0.0 1.0
0.4285714 -1.1130499997753276e-07 0.0 1.0
0.5 -1.4652249996523902e-07 0.0 1.0
0.45833330000000005 0.08333318849750002 0.0 1.0
0.4166667 0.1666664735175 0.0 1.0
0.375 0.2499998085375001 0.0 1.0
0.3333333 0.33333314355750004 0.0 1.0
0.2962963 0.296296053205 0.0 1.0
0.2592593 0.2592590494550001 0.0 1.0
0.2222222 0.22222209570500004 0.0 1.0
0.1851852 0.18518500535250004 0.0 1.0
0.1481481 0.1481480516025 0.0 1.0
0.1111111 0.11111104785250002 0.0 1.0
0.0740741 0.07407404410250001 0.0 1.0
0.037037 0.03703700375 0.0 1.0
0.0 0.0 0.0 1.0
0.0 0.0 0.49999997036250005 1.0
0.0625 -7.489999994242055e-09 0.49999997036250005 1.0
0.125 -1.497999998848411e-08 0.49999997036250005 1.0
0.1875 -2.2470000001430852e-08 0.49999997036250005 1.0
0.25 -2.995999997696822e-08 0.49999997036250005 1.0
0.3125 -3.744999997017534e-08 0.49999997036250005 1.0
0.375 -4.4940000002861705e-08 0.49999997036250005 1.0
0.4375 -1.390324999502224e-07 0.49999997036250005 1.0
0.5 -1.4652249996523902e-07 0.49999997036250005 1.0
0.45833330000000005 0.08333318849750002 0.49999997036250005 1.0
0.4166667 0.1666664735175 0.49999997036250005 1.0
0.375 0.2499998085375001 0.49999997036250005 1.0
0.3333333 0.33333314355750004 0.49999997036250005 1.0
0.3030303 0.30303010899750016 0.49999997036250005 1.0
0.27272730000000006 0.27272707443750005 0.49999997036250005 1.0
0.2424242 0.24242408987750005 0.49999997036250005 1.0
0.2121212 0.2121210553175 0.49999997036250005 1.0
0.1818182 0.1818180207575 0.49999997036250005 1.0
0.1515152 0.15151498619750003 0.49999997036250005 1.0
0.1212121 0.12121208824000003 0.49999997036250005 1.0
0.0909091 0.09090905368 0.49999997036250005 1.0
0.060606099999999996 0.060606019120000014 0.49999997036250005 1.0
0.030303 0.030303034560000008 0.49999997036250005 1.0
0.0 0.0 0.49999997036250005 1.0
0.5 -1.4652249996523902e-07 0.49999997036250005 1.0
0.5 -1.4652249996523902e-07 0.0 1.0
0.3333333 0.33333314355750004 0.0 1.0
0.3333333 0.33333314355750004 0.2500001642483 1.0
0.3333333 0.33333314355750004 0.49999997036250005 1.0
  }
  MaxAngularMomentum = {
    C = p
  }
  MaxSCCIterations = 1
  OrbitalResolvedSCC = No
  PolynomialRepulsive = SetForAll {
Yes
  }
  ReadInitialCharges = Yes
  SCC = Yes
  SCCTolerance = 1000000.0
  SlaterKosterFiles = Type2FileNames {
    Prefix = /home/inukai/tango/tests/1element/qe_fit_v3_C/
    Separator = "-"
    Suffix = ".skf"
    LowerCaseTypeName = No
  }
  OldSKInterpolation = No
  Mixer = Broyden {
    MixingParameter = 0.20000000000000001
    CachedIterations = -1
    InverseJacobiWeight = 1.0000000000000000E-002
    MinimalWeight = 1.0000000000000000
    MaximalWeight = 100000.00000000000
    WeightFactor = 1.0000000000000000E-002
  }
  DampXH = No
  EwaldParameter = 0.0000000000000000
  SpinPolarisation = {}
  ElectricField = {}
  Eigensolver = RelativelyRobust {}
  Filling = Fermi {
    Temperature = 0.0000000000000000
    IndependentKFilling = No
  }
  Charge = 0.0000000000000000
  Dispersion = {}
  ThirdOrder = No
  ThirdOrderFull = No
  Differentiation = FiniteDiff {
    Delta = 1.2207031250000000E-004
  }
  ForceEvaluation = "Traditional"
}
Options = {
  WriteResultsTag = Yes
  WriteAutotestTag = No
  WriteDetailedXML = No
  WriteDetailedOut = Yes
  RestartFrequency = 20
  RandomSeed = 0
  WriteHS = No
  WriteRealHS = No
  MinimiseMemoryUsage = No
  ShowFoldedCoords = No
}
ParserOptions = {
  IgnoreUnprocessedNodes = Yes
  ParserVersion = 5
  WriteHSDInput = Yes
  WriteXMLInput = No
  StopAfterParsing = No
}
Driver = {}
ExcitedState = {}
Analysis = {
  ProjectStates = {}
  MullikenAnalysis = Yes
  AtomResolvedEnergies = No
  WriteEigenvectors = No
  WriteBandOut = Yes
  CalculateForces = No
}
