&CONTROL
   calculation      = 'bands'
   verbosity        = 'high'
   restart_mode     = 'restart'
   tstress          = .true.
   tprnfor          = .true.
   disk_io          = 'low'
/
&SYSTEM
   ecutwfc          = 40.0
   ecutrho          = 200.0
   occupations      = 'smearing'
   degauss          = 0.001
   smearing         = 'gaussian'
   input_dft        = 'PBE'
   ntyp             = 1
   nat              = 4
   ibrav            = 0
/
&ELECTRONS
   electron_maxstep = 250
   scf_must_converge = .false.
   conv_thr         = 1e-07
   mixing_beta      = 0.1
/
&IONS
/
&CELL
/

ATOMIC_SPECIES
C 12.011 c_pbe_v1.2.uspp.F.UPF

K_POINTS crystal_b
50
0.00000000000000 0.00000000000000 0.00000000000000 0
0.07142857142857 0.00000000000000 0.00000000000000 0
0.14285714285714 0.00000000000000 0.00000000000000 0
0.21428571428571 0.00000000000000 0.00000000000000 0
0.28571428571429 0.00000000000000 0.00000000000000 0
0.35714285714286 0.00000000000000 0.00000000000000 0
0.42857142857143 0.00000000000000 0.00000000000000 0
0.50000000000000 0.00000000000000 0.00000000000000 0
0.45833333333333 0.08333333333333 0.00000000000000 0
0.41666666666667 0.16666666666667 0.00000000000000 0
0.37500000000000 0.25000000000000 0.00000000000000 0
0.33333333333333 0.33333333333333 0.00000000000000 0
0.29629629629630 0.29629629629630 0.00000000000000 0
0.25925925925926 0.25925925925926 0.00000000000000 0
0.22222222222222 0.22222222222222 0.00000000000000 0
0.18518518518519 0.18518518518519 0.00000000000000 0
0.14814814814815 0.14814814814815 0.00000000000000 0
0.11111111111111 0.11111111111111 0.00000000000000 0
0.07407407407407 0.07407407407407 0.00000000000000 0
0.03703703703704 0.03703703703704 0.00000000000000 0
0.00000000000000 0.00000000000000 0.00000000000000 0
0.00000000000000 0.00000000000000 0.50000000000000 0
0.06250000000000 0.00000000000000 0.50000000000000 0
0.12500000000000 0.00000000000000 0.50000000000000 0
0.18750000000000 0.00000000000000 0.50000000000000 0
0.25000000000000 0.00000000000000 0.50000000000000 0
0.31250000000000 0.00000000000000 0.50000000000000 0
0.37500000000000 0.00000000000000 0.50000000000000 0
0.43750000000000 0.00000000000000 0.50000000000000 0
0.50000000000000 0.00000000000000 0.50000000000000 0
0.45833333333333 0.08333333333333 0.50000000000000 0
0.41666666666667 0.16666666666667 0.50000000000000 0
0.37500000000000 0.25000000000000 0.50000000000000 0
0.33333333333333 0.33333333333333 0.50000000000000 0
0.30303030303030 0.30303030303030 0.50000000000000 0
0.27272727272727 0.27272727272727 0.50000000000000 0
0.24242424242424 0.24242424242424 0.50000000000000 0
0.21212121212121 0.21212121212121 0.50000000000000 0
0.18181818181818 0.18181818181818 0.50000000000000 0
0.15151515151515 0.15151515151515 0.50000000000000 0
0.12121212121212 0.12121212121212 0.50000000000000 0
0.09090909090909 0.09090909090909 0.50000000000000 0
0.06060606060606 0.06060606060606 0.50000000000000 0
0.03030303030303 0.03030303030303 0.50000000000000 0
0.00000000000000 0.00000000000000 0.50000000000000 0
0.50000000000000 0.00000000000000 0.50000000000000 0
0.50000000000000 0.00000000000000 0.00000000000000 0
0.33333333333333 0.33333333333333 0.00000000000000 0
0.33333333333333 0.33333333333333 0.25000000000000 0
0.33333333333333 0.33333333333333 0.50000000000000 0

CELL_PARAMETERS angstrom
2.46856900000000 0.00000000000000 0.00000000000000
-1.23428450000000 2.13784346499475 0.00000000000000
0.00000000000000 0.00000000000000 8.84078700000000

ATOMIC_POSITIONS angstrom
C 0.0000000000 0.0000000000 6.6305902500 
C 0.0000000000 0.0000000000 2.2101967500 
C -0.0000000123 1.4252289838 6.6305902500 
C 1.2342845123 0.7126144812 2.2101967500 

