Geometry = GenFormat {
4  S
H
1      1     -0.000000020037944      2.313782599520296      3.376970838640000
2      1      2.003794520037946      1.156891282406779      0.875436838640001
3      1      2.003794520037946      1.156891282406779      1.626097161360000
4      1     -0.000000020037944      2.313782599520296      4.127631161360000
0.000000000000000      0.000000000000000      0.000000000000000
4.007589000000000      0.000000000000000      0.000000000000000
-2.003794499999999      3.470673881927075      0.000000000000000
0.000000000000000      0.000000000000000      5.003068000000000
}
Hamiltonian = DFTB {
  KPointsAndWeights = {
0.0 0.0 0.0 1.0
0.0833333 -2.2187499988746075e-08 0.0 1.0
0.1666667 -9.437499998124957e-08 0.0 1.0
0.25 -2.995999997636282e-08 0.0 1.0
0.3333333 -5.2147499982778647e-08 0.0 1.0
0.4166667 -1.2433500001062164e-07 0.0 1.0
0.5 -1.465224999640282e-07 0.0 1.0
0.4444444 0.11111099570500002 0.0 1.0
0.3888889 0.22222200133 0.0 1.0
0.3333333 0.3333331435575 0.0 1.0
0.2857143 0.28571411399250013 0.0 1.0
0.23809519999999998 0.23809504782500002 0.0 1.0
0.19047620000000004 0.19047601826 0.0 1.0
0.1428571 0.14285703869500005 0.0 1.0
0.09523810000000002 0.09523800913 0.0 1.0
0.047618999999999995 0.047619029565000005 0.0 1.0
0.0 0.0 0.0 1.0
0.0 0.0 0.1249999694634 1.0
0.0 0.0 0.2499999389268 1.0
0.0 0.0 0.3749999083901999 1.0
0.0 0.0 0.49999975301380006 1.0
0.0833333 -2.2187499988746075e-08 0.49999975301380006 1.0
0.1666667 -9.437499998124957e-08 0.49999975301380006 1.0
0.25 -2.995999997636282e-08 0.49999975301380006 1.0
0.3333333 -5.2147499982778647e-08 0.49999975301380006 1.0
0.4166667 -1.2433500001062164e-07 0.49999975301380006 1.0
0.5 -1.465224999640282e-07 0.49999975301380006 1.0
0.4444444 0.11111099570500002 0.49999975301380006 1.0
0.3888889 0.22222200133 0.49999975301380006 1.0
0.3333333 0.3333331435575 0.49999975301380006 1.0
0.2962963 0.296296053205 0.49999975301380006 1.0
0.2592593 0.259259049455 0.49999975301380006 1.0
0.2222222 0.22222209570500004 0.49999975301380006 1.0
0.1851852 0.18518500535250002 0.49999975301380006 1.0
0.1481481 0.1481480516025 0.49999975301380006 1.0
0.1111111 0.11111104785250002 0.49999975301380006 1.0
0.0740741 0.07407404410249999 0.49999975301380006 1.0
0.037037 0.037037003750000005 0.49999975301380006 1.0
0.0 0.0 0.49999975301380006 1.0
0.5 -1.465224999640282e-07 0.49999975301380006 1.0
0.5 -1.465224999640282e-07 0.399999827379 1.0
0.5 -1.465224999640282e-07 0.2999999017442 1.0
0.5 -1.465224999640282e-07 0.19999997610939999 1.0
0.5 -1.465224999640282e-07 0.09999992563479998 1.0
0.5 -1.465224999640282e-07 0.0 1.0
0.3333333 0.3333331435575 0.0 1.0
0.3333333 0.3333331435575 0.1249999694634 1.0
0.3333333 0.3333331435575 0.2499999389268 1.0
0.3333333 0.3333331435575 0.3749999083901999 1.0
0.3333333 0.3333331435575 0.49999975301380006 1.0
  }
  MaxAngularMomentum = {
    H = s
  }
  MaxSCCIterations = 1
  OrbitalResolvedSCC = No
  PolynomialRepulsive = SetForAll {
Yes
  }
  ReadInitialCharges = Yes
  SCC = Yes
  SCCTolerance = 1000000.0
  SlaterKosterFiles = Type2FileNames {
    Prefix = /home/inukai/tango/tests/1element/qe_fit_v3_H/
    Separator = "-"
    Suffix = ".skf"
    LowerCaseTypeName = No
  }
  OldSKInterpolation = No
  Mixer = Broyden {
    MixingParameter = 0.20000000000000001
    CachedIterations = -1
    InverseJacobiWeight = 1.0000000000000000E-002
    MinimalWeight = 1.0000000000000000
    MaximalWeight = 100000.00000000000
    WeightFactor = 1.0000000000000000E-002
  }
  DampXH = No
  EwaldParameter = 0.0000000000000000
  SpinPolarisation = {}
  ElectricField = {}
  Eigensolver = RelativelyRobust {}
  Filling = Fermi {
    Temperature = 0.0000000000000000
    IndependentKFilling = No
  }
  Charge = 0.0000000000000000
  Dispersion = {}
  ThirdOrder = No
  ThirdOrderFull = No
  Differentiation = FiniteDiff {
    Delta = 1.2207031250000000E-004
  }
  ForceEvaluation = "Traditional"
}
Options = {
  WriteResultsTag = Yes
  WriteAutotestTag = No
  WriteDetailedXML = No
  WriteDetailedOut = Yes
  RestartFrequency = 20
  RandomSeed = 0
  WriteHS = No
  WriteRealHS = No
  MinimiseMemoryUsage = No
  ShowFoldedCoords = No
}
ParserOptions = {
  IgnoreUnprocessedNodes = Yes
  ParserVersion = 5
  WriteHSDInput = Yes
  WriteXMLInput = No
  StopAfterParsing = No
}
Driver = {}
ExcitedState = {}
Analysis = {
  ProjectStates = {}
  MullikenAnalysis = Yes
  AtomResolvedEnergies = No
  WriteEigenvectors = No
  WriteBandOut = Yes
  CalculateForces = No
}
