&CONTROL
   calculation      = 'bands'
   verbosity        = 'high'
   restart_mode     = 'restart'
   tstress          = .true.
   tprnfor          = .true.
   disk_io          = 'low'
/
&SYSTEM
   ecutwfc          = 40.0
   ecutrho          = 200.0
   occupations      = 'smearing'
   degauss          = 0.001
   smearing         = 'gaussian'
   input_dft        = 'PBE'
   ntyp             = 1
   nat              = 4
   ibrav            = 0
/
&ELECTRONS
   electron_maxstep = 250
   scf_must_converge = .false.
   conv_thr         = 1e-07
   mixing_beta      = 0.1
/
&IONS
/
&CELL
/

ATOMIC_SPECIES
H 1.008 h_pbe_v1.4.uspp.F.UPF

K_POINTS crystal_b
50
0.00000000000000 0.00000000000000 0.00000000000000 0
0.08333333333333 0.00000000000000 0.00000000000000 0
0.16666666666667 0.00000000000000 0.00000000000000 0
0.25000000000000 0.00000000000000 0.00000000000000 0
0.33333333333333 0.00000000000000 0.00000000000000 0
0.41666666666667 0.00000000000000 0.00000000000000 0
0.50000000000000 0.00000000000000 0.00000000000000 0
0.44444444444444 0.11111111111111 0.00000000000000 0
0.38888888888889 0.22222222222222 0.00000000000000 0
0.33333333333333 0.33333333333333 0.00000000000000 0
0.28571428571429 0.28571428571429 0.00000000000000 0
0.23809523809524 0.23809523809524 0.00000000000000 0
0.19047619047619 0.19047619047619 0.00000000000000 0
0.14285714285714 0.14285714285714 0.00000000000000 0
0.09523809523810 0.09523809523810 0.00000000000000 0
0.04761904761905 0.04761904761905 0.00000000000000 0
0.00000000000000 0.00000000000000 0.00000000000000 0
0.00000000000000 0.00000000000000 0.12500000000000 0
0.00000000000000 0.00000000000000 0.25000000000000 0
0.00000000000000 0.00000000000000 0.37500000000000 0
0.00000000000000 0.00000000000000 0.50000000000000 0
0.08333333333333 0.00000000000000 0.50000000000000 0
0.16666666666667 0.00000000000000 0.50000000000000 0
0.25000000000000 0.00000000000000 0.50000000000000 0
0.33333333333333 0.00000000000000 0.50000000000000 0
0.41666666666667 0.00000000000000 0.50000000000000 0
0.50000000000000 0.00000000000000 0.50000000000000 0
0.44444444444444 0.11111111111111 0.50000000000000 0
0.38888888888889 0.22222222222222 0.50000000000000 0
0.33333333333333 0.33333333333333 0.50000000000000 0
0.29629629629630 0.29629629629630 0.50000000000000 0
0.25925925925926 0.25925925925926 0.50000000000000 0
0.22222222222222 0.22222222222222 0.50000000000000 0
0.18518518518519 0.18518518518519 0.50000000000000 0
0.14814814814815 0.14814814814815 0.50000000000000 0
0.11111111111111 0.11111111111111 0.50000000000000 0
0.07407407407407 0.07407407407407 0.50000000000000 0
0.03703703703704 0.03703703703704 0.50000000000000 0
0.00000000000000 0.00000000000000 0.50000000000000 0
0.50000000000000 0.00000000000000 0.50000000000000 0
0.50000000000000 0.00000000000000 0.40000000000000 0
0.50000000000000 0.00000000000000 0.30000000000000 0
0.50000000000000 0.00000000000000 0.20000000000000 0
0.50000000000000 0.00000000000000 0.10000000000000 0
0.50000000000000 0.00000000000000 0.00000000000000 0
0.33333333333333 0.33333333333333 0.00000000000000 0
0.33333333333333 0.33333333333333 0.12500000000000 0
0.33333333333333 0.33333333333333 0.25000000000000 0
0.33333333333333 0.33333333333333 0.37500000000000 0
0.33333333333333 0.33333333333333 0.50000000000000 0

CELL_PARAMETERS angstrom
4.00758900000000 0.00000000000000 0.00000000000000
-2.00379450000000 3.47067388192708 0.00000000000000
0.00000000000000 0.00000000000000 5.00306800000000

ATOMIC_POSITIONS angstrom
H -0.0000000200 2.3137825995 3.3769708386 
H 2.0037945200 1.1568912824 0.8754368386 
H 2.0037945200 1.1568912824 1.6260971614 
H -0.0000000200 2.3137825995 4.1276311614 

