Geometry = GenFormat { 
    <<< "geo_end.gen" 
} 
 
Hamiltonian = DFTB{ 
   KPointsAndWeights = { 
      0.0 0.0 0.0 1.0 
      0.0833333 -2.218749999605639e-08 0.0 1.0 
      0.1666667 -9.43749999999646e-08 0.0 1.0 
      0.25 -2.995999996880963e-08 0.0 1.0 
      0.3333333 -5.2147499966626966e-08 0.0 1.0 
      0.4166667 -1.2433500000411373e-07 0.0 1.0 
      0.5 -1.4652249994892183e-07 0.0 1.0 
      0.4444444 0.11111099570500002 0.0 1.0 
      0.3888889 0.22222200133 0.0 1.0 
      0.3333333 0.33333314355750004 0.0 1.0 
      0.2916667 0.29166645853749995 0.0 1.0 
      0.25 0.24999982351749994 0.0 1.0 
      0.2083333 0.2083331884975 0.0 1.0 
      0.1666667 0.16666650347750003 0.0 1.0 
      0.125 0.12499995506000001 0.0 1.0 
      0.0833333 0.08333332004000003 0.0 1.0 
      0.041666699999999994 0.041666635020000016 0.0 1.0 
      0.0 0.0 0.0 1.0 
      0.0 0.0 0.1666666436931 1.0 
      0.0 0.0 0.3333332873862 1.0 
      0.0 0.0 0.49999993107929996 1.0 
      0.0714286 -3.521749999557326e-08 0.49999993107929996 1.0 
      0.1428571 -2.0434999983294678e-08 0.49999993107929996 1.0 
      0.21428569999999997 -5.565249998152442e-08 0.49999993107929996 1.0 
      0.2857143 -9.086999998858904e-08 0.49999993107929996 1.0 
      0.35714289999999993 -1.2608749996383606e-07 0.49999993107929996 1.0 
      0.42857139999999994 -1.1130499996304884e-07 0.49999993107929996 1.0 
      0.5 -1.4652249994892183e-07 0.49999993107929996 1.0 
      0.4583333 0.0833331884975 0.49999993107929996 1.0 
      0.4166667 0.16666647351749994 0.49999993107929996 1.0 
      0.375 0.24999980853749995 0.49999993107929996 1.0 
      0.3333333 0.33333314355750004 0.49999993107929996 1.0 
      0.2962963 0.296296053205 0.49999993107929996 1.0 
      0.2592593 0.259259049455 0.49999993107929996 1.0 
      0.2222222 0.22222209570500004 0.49999993107929996 1.0 
      0.1851852 0.18518500535249996 0.49999993107929996 1.0 
      0.1481481 0.1481480516025 0.49999993107929996 1.0 
      0.1111111 0.11111104785250002 0.49999993107929996 1.0 
      0.07407409999999999 0.07407404410250001 0.49999993107929996 1.0 
      0.037037 0.03703700375 0.49999993107929996 1.0 
      0.0 0.0 0.49999993107929996 1.0 
      0.5 -1.4652249994892183e-07 0.49999993107929996 1.0 
      0.5 -1.4652249994892183e-07 0.3749999878455 1.0 
      0.5 -1.4652249994892183e-07 0.2499998864676 1.0 
      0.5 -1.4652249994892183e-07 0.1249999432338 1.0 
      0.5 -1.4652249994892183e-07 0.0 1.0 
      0.3333333 0.33333314355750004 0.0 1.0 
      0.3333333 0.33333314355750004 0.1666666436931 1.0 
      0.3333333 0.33333314355750004 0.3333332873862 1.0 
      0.3333333 0.33333314355750004 0.49999993107929996 1.0 
   } 
   MaxAngularMomentum = { 
      Hf = f 
   } 
   MaxSCCIterations = 1 
   OrbitalResolvedSCC = No 
   PolynomialRepulsive = SetForAll {Yes} 
   ReadInitialCharges = Yes 
   SCC = Yes 
   SCCTolerance = 1000000.0 
   SlaterKosterFiles = Type2FileNames{ 
      Prefix = /home/inukai/tango/tests/1element/qe_fit_v3_Hf/ 
      Separator = "-" 
      Suffix = ".skf" 
      } 
   } 
Options { 
   WriteResultsTag = Yes 
} 
ParserOptions { 
   IgnoreUnprocessedNodes = Yes  
} 
