Geometry = GenFormat {
2  S
Co
1      1      0.000000000000000      0.000000000000000      0.000000000000000
2      1      0.000000000000000      1.447417124858392      2.034500000000000
0.000000000000000      0.000000000000000      0.000000000000000
2.507000000000000      0.000000000000000      0.000000000000000
-1.253500000000000      2.171125687287588      0.000000000000000
0.000000000000000      0.000000000000000      4.069000000000000
}
Hamiltonian = DFTB {
  KPointsAndWeights = {
0.0 0.0 0.0 1.0
0.0357143 2.5692500001077555e-08 0.0 1.0
0.0714286 -3.5217499995895144e-08 0.0 1.0
0.10714289999999999 -9.524999987071611e-09 0.0 1.0
0.1428571 -2.0434999986039687e-08 0.0 1.0
0.1785714 5.257500011709329e-09 0.0 1.0
0.2142857 -5.5652499984174475e-08 0.0 1.0
0.25 -2.9959999993020685e-08 0.0 1.0
0.2857143 -9.086999997782998e-08 0.0 1.0
0.32142860000000006 -6.517750000882521e-08 0.0 1.0
0.35714289999999993 -1.2608749997148548e-07 0.0 1.0
0.39285710000000007 -5.0395000018879156e-08 0.0 1.0
0.4285714 -1.1130499996834895e-07 0.0 1.0
0.4642857 -8.561250003468368e-08 0.0 1.0
0.5 -1.4652249999734395e-07 0.0 1.0
0.47916669999999995 0.041666495987500024 0.0 1.0
0.45833330000000005 0.08333318849750002 0.0 1.0
0.4375 0.1249998310075 0.0 1.0
0.41666669999999995 0.16666647351749997 0.0 1.0
0.3958333 0.20833316602750002 0.0 1.0
0.375 0.2499998085375 0.0 1.0
0.3541667 0.29166645104749994 0.0 1.0
0.3333333 0.3333331435575 0.0 1.0
0.3148148 0.31481464168250006 0.0 1.0
0.2962963 0.296296053205 0.0 1.0
0.27777779999999996 0.27777755133 0.0 1.0
0.2592593 0.259259049455 0.0 1.0
0.2407407 0.24074059758 0.0 1.0
0.2222222 0.22222209570500004 0.0 1.0
0.20370370000000002 0.20370359383000003 0.0 1.0
0.1851852 0.18518500535250002 0.0 1.0
0.1666667 0.1666665034775 0.0 1.0
0.1481481 0.1481480516025 0.0 1.0
0.1296296 0.12962954972750002 0.0 1.0
0.1111111 0.11111104785250002 0.0 1.0
0.0925926 0.09259254597750001 0.0 1.0
0.0740741 0.07407404410250001 0.0 1.0
0.0555556 0.05555545562500001 0.0 1.0
0.037037 0.03703700375 0.0 1.0
0.0185185 0.018518501875 0.0 1.0
0.0 0.0 0.0 1.0
0.0 0.0 0.05555554959500001 1.0
0.0 0.0 0.11111109919000002 1.0
0.0 0.0 0.16666664878499998 1.0
0.0 0.0 0.22222219838000004 1.0
0.0 0.0 0.277777747975 1.0
0.0 0.0 0.33333329756999996 1.0
0.0 0.0 0.38888884716500005 1.0
0.0 0.0 0.4444443967600001 1.0
0.0 0.0 0.4999997840495 1.0
  }
  MaxAngularMomentum = {
    Co = d
  }
  MaxSCCIterations = 1
  OrbitalResolvedSCC = No
  PolynomialRepulsive = SetForAll {
Yes
  }
  ReadInitialCharges = Yes
  SCC = Yes
  SCCTolerance = 1000000.0
  SlaterKosterFiles = Type2FileNames {
    Prefix = /home/inukai/tango/tests/1element/qe_fit_v2_Co/
    Separator = "-"
    Suffix = ".skf"
    LowerCaseTypeName = No
  }
  OldSKInterpolation = No
  Mixer = Broyden {
    MixingParameter = 0.20000000000000001
    CachedIterations = -1
    InverseJacobiWeight = 1.0000000000000000E-002
    MinimalWeight = 1.0000000000000000
    MaximalWeight = 100000.00000000000
    WeightFactor = 1.0000000000000000E-002
  }
  DampXH = No
  EwaldParameter = 0.0000000000000000
  SpinPolarisation = {}
  ElectricField = {}
  Eigensolver = RelativelyRobust {}
  Filling = Fermi {
    Temperature = 0.0000000000000000
    IndependentKFilling = No
  }
  Charge = 0.0000000000000000
  Dispersion = {}
  ThirdOrder = No
  ThirdOrderFull = No
  Differentiation = FiniteDiff {
    Delta = 1.2207031250000000E-004
  }
  ForceEvaluation = "Traditional"
}
Options = {
  WriteResultsTag = Yes
  WriteAutotestTag = No
  WriteDetailedXML = No
  WriteDetailedOut = Yes
  RestartFrequency = 20
  RandomSeed = 0
  WriteHS = No
  WriteRealHS = No
  MinimiseMemoryUsage = No
  ShowFoldedCoords = No
}
ParserOptions = {
  IgnoreUnprocessedNodes = Yes
  ParserVersion = 5
  WriteHSDInput = Yes
  WriteXMLInput = No
  StopAfterParsing = No
}
Driver = {}
ExcitedState = {}
Analysis = {
  ProjectStates = {}
  MullikenAnalysis = Yes
  AtomResolvedEnergies = No
  WriteEigenvectors = No
  WriteBandOut = Yes
  CalculateForces = No
}
