&CONTROL
   calculation      = 'bands'
   verbosity        = 'high'
   restart_mode     = 'restart'
   tstress          = .true.
   tprnfor          = .true.
   disk_io          = 'low'
/
&SYSTEM
   ecutwfc          = 40.0
   ecutrho          = 200.0
   occupations      = 'smearing'
   degauss          = 0.001
   smearing         = 'gaussian'
   input_dft        = 'PBE'
   ntyp             = 1
   nat              = 2
   ibrav            = 0
/
&ELECTRONS
   electron_maxstep = 250
   scf_must_converge = .false.
   conv_thr         = 1e-07
   mixing_beta      = 0.1
/
&IONS
/
&CELL
/

ATOMIC_SPECIES
Co 58.933194 co_pbe_v1.2.uspp.F.UPF

K_POINTS crystal_b
50
0.00000000000000 0.00000000000000 0.00000000000000 0
0.03571428571429 0.00000000000000 0.00000000000000 0
0.07142857142857 0.00000000000000 0.00000000000000 0
0.10714285714286 0.00000000000000 0.00000000000000 0
0.14285714285714 0.00000000000000 0.00000000000000 0
0.17857142857143 0.00000000000000 0.00000000000000 0
0.21428571428571 0.00000000000000 0.00000000000000 0
0.25000000000000 0.00000000000000 0.00000000000000 0
0.28571428571429 0.00000000000000 0.00000000000000 0
0.32142857142857 0.00000000000000 0.00000000000000 0
0.35714285714286 0.00000000000000 0.00000000000000 0
0.39285714285714 0.00000000000000 0.00000000000000 0
0.42857142857143 0.00000000000000 0.00000000000000 0
0.46428571428571 0.00000000000000 0.00000000000000 0
0.50000000000000 0.00000000000000 0.00000000000000 0
0.47916666666667 0.04166666666667 0.00000000000000 0
0.45833333333333 0.08333333333333 0.00000000000000 0
0.43750000000000 0.12500000000000 0.00000000000000 0
0.41666666666667 0.16666666666667 0.00000000000000 0
0.39583333333333 0.20833333333333 0.00000000000000 0
0.37500000000000 0.25000000000000 0.00000000000000 0
0.35416666666667 0.29166666666667 0.00000000000000 0
0.33333333333333 0.33333333333333 0.00000000000000 0
0.31481481481481 0.31481481481481 0.00000000000000 0
0.29629629629630 0.29629629629630 0.00000000000000 0
0.27777777777778 0.27777777777778 0.00000000000000 0
0.25925925925926 0.25925925925926 0.00000000000000 0
0.24074074074074 0.24074074074074 0.00000000000000 0
0.22222222222222 0.22222222222222 0.00000000000000 0
0.20370370370370 0.20370370370370 0.00000000000000 0
0.18518518518519 0.18518518518519 0.00000000000000 0
0.16666666666667 0.16666666666667 0.00000000000000 0
0.14814814814815 0.14814814814815 0.00000000000000 0
0.12962962962963 0.12962962962963 0.00000000000000 0
0.11111111111111 0.11111111111111 0.00000000000000 0
0.09259259259259 0.09259259259259 0.00000000000000 0
0.07407407407407 0.07407407407407 0.00000000000000 0
0.05555555555556 0.05555555555556 0.00000000000000 0
0.03703703703704 0.03703703703704 0.00000000000000 0
0.01851851851852 0.01851851851852 0.00000000000000 0
0.00000000000000 0.00000000000000 0.00000000000000 0
0.00000000000000 0.00000000000000 0.05555555555556 0
0.00000000000000 0.00000000000000 0.11111111111111 0
0.00000000000000 0.00000000000000 0.16666666666667 0
0.00000000000000 0.00000000000000 0.22222222222222 0
0.00000000000000 0.00000000000000 0.27777777777778 0
0.00000000000000 0.00000000000000 0.33333333333333 0
0.00000000000000 0.00000000000000 0.38888888888889 0
0.00000000000000 0.00000000000000 0.44444444444444 0
0.00000000000000 0.00000000000000 0.50000000000000 0

CELL_PARAMETERS angstrom
2.50700000000000 0.00000000000000 0.00000000000000
-1.25350000000000 2.17112568728759 0.00000000000000
0.00000000000000 0.00000000000000 4.06900000000000

ATOMIC_POSITIONS angstrom
Co 0.0000000000 0.0000000000 0.0000000000 
Co 0.0000000000 1.4474171249 2.0345000000 

