Geometry = GenFormat { 
    <<< "geo_end.gen" 
} 
 
Hamiltonian = DFTB{ 
   KPointsAndWeights = { 
      0.5000000133031199 0.25000000665155997 0.7500000199546798 1.0 
      0.5000000133031198 0.2777777773116579 0.7222222492945818 1.0 
      0.5000000133031198 0.30555554797175594 0.6944444786344839 1.0 
      0.5000000133031199 0.33333331863185395 0.6666667079743859 1.0 
      0.4999999425924418 0.3611110892919519 0.6388888666036098 1.0 
      0.5000000133031199 0.38888893066272795 0.6111110959435119 1.0 
      0.5000000133031199 0.416666701322826 0.5833333252834138 1.0 
      0.5000000133031199 0.4444444719829239 0.5555555546233159 1.0 
      0.5000000133031199 0.4722222426430219 0.5277777839632178 1.0 
      0.5000000133031199 0.5000000133031199 0.5000000133031199 1.0 
      0.4583333219576339 0.4583333219576339 0.4583333219576339 1.0 
      0.4166666306121478 0.4166666306121478 0.4166666306121478 1.0 
      0.3749999392666618 0.3749999392666618 0.3749999392666618 1.0 
      0.33333338934253204 0.33333338934253204 0.33333338934253204 1.0 
      0.291666697997046 0.291666697997046 0.291666697997046 1.0 
      0.25000000665155997 0.25000000665155997 0.25000000665155997 1.0 
      0.2083333153060739 0.2083333153060739 0.2083333153060739 1.0 
      0.16666662396058787 0.16666662396058787 0.16666662396058787 1.0 
      0.12499993261510185 0.12499993261510185 0.12499993261510185 1.0 
      0.08333338269097205 0.08333338269097205 0.08333338269097205 1.0 
      0.04166669134548603 0.04166669134548603 0.04166669134548603 1.0 
      0.0 0.0 0.0 1.0 
      0.033333367218524444 0.0 0.033333367218524444 1.0 
      0.06666666372637077 0.0 0.06666666372637077 1.0 
      0.10000003094489522 0.0 0.10000003094489522 1.0 
      0.13333332745274154 0.0 0.13333332745274154 1.0 
      0.16666669467126602 0.0 0.16666669467126602 1.0 
      0.19999999117911235 0.0 0.19999999117911235 1.0 
      0.23333335839763678 0.0 0.23333335839763678 1.0 
      0.2666666549054831 0.0 0.2666666549054831 1.0 
      0.3000000221240075 0.0 0.3000000221240075 1.0 
      0.33333331863185384 0.0 0.33333331863185384 1.0 
      0.3666666858503783 0.0 0.3666666858503783 1.0 
      0.3999999823582247 0.0 0.3999999823582247 1.0 
      0.4333333495767491 0.0 0.4333333495767491 1.0 
      0.46666664608459546 0.0 0.46666664608459546 1.0 
      0.5000000133031199 0.0 0.5000000133031199 1.0 
      0.5000000133031199 0.03571426646145767 0.5357142797645775 1.0 
      0.5000000133031199 0.07142860363359346 0.5714286169367133 1.0 
      0.5000000133031199 0.10714287009505112 0.607142883398171 1.0 
      0.5000000133031199 0.1428571365565088 0.6428571498596287 1.0 
      0.5000000133031199 0.17857140301796648 0.6785714163210864 1.0 
      0.5000000133031199 0.21428574019010224 0.7142857534932221 1.0 
      0.5000000133031199 0.25000000665155997 0.7500000199546798 1.0 
      0.47916666763037685 0.27083335232430295 0.7500000199546798 1.0 
      0.4583333219576339 0.291666697997046 0.7500000199546798 1.0 
      0.43749997628489085 0.31249997295911086 0.7499999492440017 1.0 
      0.416666701322826 0.33333331863185384 0.7500000199546799 1.0 
      0.39583335565008293 0.3541666643045969 0.7500000199546798 1.0 
      0.37500000997733995 0.37500000997733995 0.7500000199546799 1.0 
   } 
   MaxAngularMomentum = { 
      Ag = d 
   } 
   MaxSCCIterations = 1 
   OrbitalResolvedSCC = No 
   PolynomialRepulsive = SetForAll {Yes} 
   ReadInitialCharges = Yes 
   SCC = Yes 
   SCCTolerance = 1000000.0 
   SlaterKosterFiles = Type2FileNames{ 
      Prefix = /home/inukai/tango/tests/1element/qe_fit_v2_Ag/ 
      Separator = "-" 
      Suffix = ".skf" 
      } 
   } 
Options { 
   WriteResultsTag = Yes 
} 
ParserOptions { 
   IgnoreUnprocessedNodes = Yes  
} 
