Geometry = GenFormat { 
    <<< "geo_end.gen" 
} 
 
Hamiltonian = DFTB{ 
   KPointsAndWeights = { 
      0.0 0.0 0.0 1.0 
      0.0357143 2.5692500004104162e-08 0.0 1.0 
      0.0714286 -3.521749999425936e-08 0.0 1.0 
      0.10714289999999999 -9.524999998405313e-09 0.0 1.0 
      0.1428571 -2.043499998801698e-08 0.0 1.0 
      0.1785714 5.257500017061783e-09 0.0 1.0 
      0.21428569999999997 -5.5652499981886506e-08 0.0 1.0 
      0.25 -2.995999998564262e-08 0.0 1.0 
      0.2857143 -9.086999998459089e-08 0.0 1.0 
      0.3214286 -6.517750002368651e-08 0.0 1.0 
      0.35714289999999993 -1.2608749996962555e-07 0.0 1.0 
      0.3928571 -5.0394999982494465e-08 0.0 1.0 
      0.42857139999999994 -1.1130499996377301e-07 0.0 1.0 
      0.46428569999999997 -8.561250000130926e-08 0.0 1.0 
      0.5 -1.465224999472483e-07 0.0 1.0 
      0.47916669999999995 0.04166649598749998 0.0 1.0 
      0.4583333 0.08333318849749997 0.0 1.0 
      0.4375 0.1249998310075 0.0 1.0 
      0.4166667 0.1666664735175 0.0 1.0 
      0.3958333 0.20833316602750002 0.0 1.0 
      0.37499999999999994 0.24999980853749998 0.0 1.0 
      0.35416669999999995 0.2916664510475 0.0 1.0 
      0.3333333 0.3333331435575 0.0 1.0 
      0.31481479999999995 0.3148146416825 0.0 1.0 
      0.2962963 0.296296053205 0.0 1.0 
      0.27777779999999996 0.27777755133 0.0 1.0 
      0.2592593 0.259259049455 0.0 1.0 
      0.2407407 0.24074059758 0.0 1.0 
      0.22222219999999998 0.22222209570500004 0.0 1.0 
      0.20370369999999996 0.20370359382999997 0.0 1.0 
      0.1851852 0.18518500535250002 0.0 1.0 
      0.16666669999999997 0.16666650347750003 0.0 1.0 
      0.1481481 0.1481480516025 0.0 1.0 
      0.1296296 0.12962954972750002 0.0 1.0 
      0.11111109999999999 0.11111104785250002 0.0 1.0 
      0.0925926 0.0925925459775 0.0 1.0 
      0.07407409999999999 0.07407404410249999 0.0 1.0 
      0.0555556 0.05555545562500001 0.0 1.0 
      0.037037 0.03703700375 0.0 1.0 
      0.0185185 0.018518501875 0.0 1.0 
      0.0 0.0 0.0 1.0 
      0.0 0.0 0.0555555151515 1.0 
      0.0 0.0 0.11111118744589998 1.0 
      0.0 0.0 0.1666667025974 1.0 
      0.0 0.0 0.22222221774889994 1.0 
      0.0 0.0 0.27777789004329995 1.0 
      0.0 0.0 0.3333334051948 1.0 
      0.0 0.0 0.38888892034629996 1.0 
      0.0 0.0 0.44444459264069996 1.0 
      0.0 0.0 0.5000001077921999 1.0 
   } 
   MaxAngularMomentum = { 
      Y = d 
   } 
   MaxSCCIterations = 1 
   OrbitalResolvedSCC = No 
   PolynomialRepulsive = SetForAll {Yes} 
   ReadInitialCharges = Yes 
   SCC = Yes 
   SCCTolerance = 1000000.0 
   SlaterKosterFiles = Type2FileNames{ 
      Prefix = /home/inukai/tango/tests/1element/qe_fit_v2_Y/ 
      Separator = "-" 
      Suffix = ".skf" 
      } 
   } 
Options { 
   WriteResultsTag = Yes 
} 
ParserOptions { 
   IgnoreUnprocessedNodes = Yes  
} 
