Geometry = GenFormat { 
    <<< "geo_end.gen" 
} 
 
Hamiltonian = DFTB{ 
   KPointsAndWeights = { 
      0.0 0.0 0.0 1.0 
      0.03571431030180106 -0.03571431030180106 0.03571431030180106 1.0 
      0.0714285628685752 -0.0714285628685752 0.0714285628685752 1.0 
      0.10714287317037625 -0.10714287317037625 0.10714287317037625 1.0 
      0.1428571257371504 -0.1428571257371504 0.1428571257371504 1.0 
      0.17857143603895143 -0.17857143603895143 0.17857143603895143 1.0 
      0.21428568860572555 -0.21428568860572555 0.21428568860572555 1.0 
      0.2499999989075266 -0.2499999989075266 0.2499999989075266 1.0 
      0.2857143092093277 -0.2857143092093277 0.2857143092093277 1.0 
      0.3214285617761018 -0.3214285617761018 0.3214285617761018 1.0 
      0.35714287207790285 -0.35714287207790285 0.35714287207790285 1.0 
      0.392857124644677 -0.392857124644677 0.392857124644677 1.0 
      0.4285714349464781 -0.4285714349464781 0.4285714349464781 1.0 
      0.4642856875132522 -0.4642856875132522 0.4642856875132522 1.0 
      0.4999999978150532 -0.4999999978150532 0.4999999978150532 1.0 
      0.44999996339253173 -0.44999996339253173 0.4999999978150532 1.0 
      0.4000000444400642 -0.4000000444400642 0.4999999978150534 1.0 
      0.3500000100175427 -0.3500000100175427 0.4999999978150534 1.0 
      0.2999999755950212 -0.2999999755950212 0.4999999978150533 1.0 
      0.24999999890752664 -0.24999999890752664 0.5000000555500802 1.0 
      0.2000000222200321 -0.2000000222200321 0.4999999978150534 1.0 
      0.14999998779751061 -0.14999998779751061 0.4999999978150534 1.0 
      0.09999995337498914 -0.09999995337498914 0.4999999978150533 1.0 
      0.05000003442252151 -0.05000003442252151 0.4999999978150533 1.0 
      -1.5697205098147857e-17 1.5697205098147857e-17 0.4999999978150532 1.0 
      1.6246226264136857e-18 -1.6246226264136857e-18 0.4545454420618617 1.0 
      -8.954071544754857e-18 8.954071544754857e-18 0.4090908863086702 1.0 
      9.287816148310278e-19 -9.287816148310278e-19 0.36363633055547856 1.0 
      8.019835674015355e-18 -8.019835674015355e-18 0.3181817748022871 1.0 
      7.671915168224026e-18 -7.671915168224026e-18 0.2727272190490955 1.0 
      1.7396025289566447e-18 -1.7396025289566447e-18 0.2272727787659578 1.0 
      -2.3278052593225126e-18 2.3278052593225126e-18 0.1818182230127662 1.0 
      1.0437615173739869e-18 -1.0437615173739869e-18 0.1363636672595747 1.0 
      -1.1639026296612563e-18 1.1639026296612563e-18 0.0909091115063831 1.0 
      -5.819513148306282e-19 5.819513148306282e-19 0.04545455575319155 1.0 
      0.0 0.0 0.0 1.0 
      0.01785715515090053 0.01785715515090053 0.01785715515090053 1.0 
      0.03571431030180106 0.03571431030180106 0.03571431030180106 1.0 
      0.05357140771767466 0.05357140771767466 0.05357140771767466 1.0 
      0.0714285628685752 0.0714285628685752 0.0714285628685752 1.0 
      0.08928571801947571 0.08928571801947573 0.08928571801947571 1.0 
      0.10714287317037625 0.10714287317037624 0.10714287317037625 1.0 
      0.12500002832127677 0.12500002832127677 0.12500002832127677 1.0 
      0.1428571257371504 0.1428571257371504 0.1428571257371504 1.0 
      0.1607142808880509 0.1607142808880509 0.1607142808880509 1.0 
      0.17857143603895143 0.17857143603895145 0.17857143603895143 1.0 
      0.19642859118985195 0.19642859118985195 0.19642859118985195 1.0 
      0.21428568860572555 0.21428568860572558 0.21428568860572555 1.0 
      0.2321428437566261 0.2321428437566261 0.2321428437566261 1.0 
      0.2499999989075266 0.24999999890752664 0.2499999989075266 1.0 
   } 
   MaxAngularMomentum = { 
      S = d 
   } 
   MaxSCCIterations = 1 
   OrbitalResolvedSCC = No 
   PolynomialRepulsive = SetForAll {Yes} 
   ReadInitialCharges = Yes 
   SCC = Yes 
   SCCTolerance = 1000000.0 
   SlaterKosterFiles = Type2FileNames{ 
      Prefix = /home/inukai/tango/tests/1element/qe_fit_v2_S/ 
      Separator = "-" 
      Suffix = ".skf" 
      } 
   } 
Options { 
   WriteResultsTag = Yes 
} 
ParserOptions { 
   IgnoreUnprocessedNodes = Yes  
} 
