Geometry = GenFormat {
1  S
Se
1      1      0.000000000000000      0.000000000000000      0.000000000000000
0.000000000000000      0.000000000000000      0.000000000000000
-1.720500000000000      1.720500000000000      1.720500000000000
1.720500000000000     -1.720500000000000      1.720500000000000
1.720500000000000      1.720500000000000     -1.720500000000000
}
Hamiltonian = DFTB {
  KPointsAndWeights = {
0.0 0.0 0.0 1.0
0.03571431030180106 -0.03571431030180106 0.03571431030180106 1.0
0.0714285628685752 -0.0714285628685752 0.0714285628685752 1.0
0.10714287317037625 -0.10714287317037625 0.10714287317037625 1.0
0.1428571257371504 -0.1428571257371504 0.1428571257371504 1.0
0.17857143603895145 -0.17857143603895145 0.17857143603895145 1.0
0.21428568860572558 -0.21428568860572558 0.21428568860572558 1.0
0.24999999890752664 -0.24999999890752664 0.24999999890752664 1.0
0.2857143092093277 -0.2857143092093277 0.2857143092093277 1.0
0.32142856177610185 -0.32142856177610185 0.32142856177610185 1.0
0.3571428720779029 -0.3571428720779029 0.3571428720779029 1.0
0.3928571246446771 -0.3928571246446771 0.3928571246446771 1.0
0.42857143494647815 -0.42857143494647815 0.42857143494647815 1.0
0.4642856875132523 -0.4642856875132523 0.4642856875132523 1.0
0.4999999978150533 -0.4999999978150533 0.4999999978150533 1.0
0.4499999633925319 -0.4499999633925319 0.4999999978150534 1.0
0.4000000444400642 -0.4000000444400642 0.4999999978150534 1.0
0.35000001001754283 -0.35000001001754283 0.49999999781505344 1.0
0.2999999755950212 -0.2999999755950212 0.4999999978150533 1.0
0.2499999989075267 -0.2499999989075267 0.5000000555500803 1.0
0.2000000222200321 -0.2000000222200321 0.4999999978150534 1.0
0.14999998779751061 -0.14999998779751061 0.4999999978150534 1.0
0.09999995337498914 -0.09999995337498914 0.4999999978150534 1.0
0.0500000344225215 -0.0500000344225215 0.4999999978150534 1.0
-1.0998546488660817e-18 1.0998546488660817e-18 0.4999999978150533 1.0
-1.2979735403340544e-17 1.2979735403340544e-17 0.45454544206186176 1.0
5.541169157476699e-18 -5.541169157476699e-18 0.40909088630867024 1.0
-1.1277422742411801e-17 1.1277422742411801e-17 0.36363633055547867 1.0
7.243481818405443e-18 -7.243481818405443e-18 0.3181817748022871 1.0
8.094638148869813e-18 -8.094638148869813e-18 0.2727272190490956 1.0
-4.255781652321858e-18 4.255781652321858e-18 0.2272727787659578 1.0
-3.4046253218574866e-18 3.4046253218574866e-18 0.18181822301276623 1.0
-2.553468991393115e-18 2.553468991393115e-18 0.1363636672595747 1.0
-1.7023126609287433e-18 1.7023126609287433e-18 0.09090911150638312 1.0
-8.511563304643716e-19 8.511563304643716e-19 0.04545455575319156 1.0
0.0 0.0 0.0 1.0
0.01785715515090053 0.01785715515090053 0.01785715515090053 1.0
0.03571431030180106 0.03571431030180106 0.03571431030180106 1.0
0.05357140771767467 0.05357140771767466 0.05357140771767467 1.0
0.0714285628685752 0.0714285628685752 0.0714285628685752 1.0
0.08928571801947573 0.08928571801947573 0.08928571801947573 1.0
0.10714287317037625 0.10714287317037627 0.10714287317037625 1.0
0.1250000283212768 0.1250000283212768 0.1250000283212768 1.0
0.1428571257371504 0.1428571257371504 0.1428571257371504 1.0
0.16071428088805093 0.16071428088805093 0.16071428088805093 1.0
0.17857143603895145 0.17857143603895145 0.17857143603895145 1.0
0.19642859118985198 0.19642859118985195 0.19642859118985198 1.0
0.21428568860572558 0.21428568860572564 0.21428568860572558 1.0
0.23214284375662614 0.23214284375662614 0.23214284375662614 1.0
0.24999999890752664 0.24999999890752664 0.24999999890752664 1.0
  }
  MaxAngularMomentum = {
    Se = d
  }
  MaxSCCIterations = 1
  OrbitalResolvedSCC = No
  PolynomialRepulsive = SetForAll {
Yes
  }
  ReadInitialCharges = Yes
  SCC = Yes
  SCCTolerance = 1000000.0
  SlaterKosterFiles = Type2FileNames {
    Prefix = /home/inukai/tango/tests/1element/qe_fit_v2_Se/
    Separator = "-"
    Suffix = ".skf"
    LowerCaseTypeName = No
  }
  OldSKInterpolation = No
  Mixer = Broyden {
    MixingParameter = 0.20000000000000001
    CachedIterations = -1
    InverseJacobiWeight = 1.0000000000000000E-002
    MinimalWeight = 1.0000000000000000
    MaximalWeight = 100000.00000000000
    WeightFactor = 1.0000000000000000E-002
  }
  DampXH = No
  EwaldParameter = 0.0000000000000000
  SpinPolarisation = {}
  ElectricField = {}
  Eigensolver = RelativelyRobust {}
  Filling = Fermi {
    Temperature = 0.0000000000000000
    IndependentKFilling = No
  }
  Charge = 0.0000000000000000
  Dispersion = {}
  ThirdOrder = No
  ThirdOrderFull = No
  Differentiation = FiniteDiff {
    Delta = 1.2207031250000000E-004
  }
  ForceEvaluation = "Traditional"
}
Options = {
  WriteResultsTag = Yes
  WriteAutotestTag = No
  WriteDetailedXML = No
  WriteDetailedOut = Yes
  RestartFrequency = 20
  RandomSeed = 0
  WriteHS = No
  WriteRealHS = No
  MinimiseMemoryUsage = No
  ShowFoldedCoords = No
}
ParserOptions = {
  IgnoreUnprocessedNodes = Yes
  ParserVersion = 5
  WriteHSDInput = Yes
  WriteXMLInput = No
  StopAfterParsing = No
}
Driver = {}
ExcitedState = {}
Analysis = {
  ProjectStates = {}
  MullikenAnalysis = Yes
  AtomResolvedEnergies = No
  WriteEigenvectors = No
  WriteBandOut = Yes
  CalculateForces = No
}
