Geometry = GenFormat { 
    <<< "geo_end.gen" 
} 
 
Hamiltonian = DFTB{ 
   KPointsAndWeights = { 
      0.0 0.0 0.0 1.0 
      0.03571431030180106 -0.03571431030180106 0.03571431030180106 1.0 
      0.07142856286857521 -0.07142856286857521 0.07142856286857521 1.0 
      0.10714287317037625 -0.10714287317037625 0.10714287317037625 1.0 
      0.14285712573715043 -0.14285712573715043 0.14285712573715043 1.0 
      0.17857143603895148 -0.17857143603895148 0.17857143603895148 1.0 
      0.21428568860572558 -0.21428568860572558 0.21428568860572558 1.0 
      0.24999999890752664 -0.24999999890752664 0.24999999890752664 1.0 
      0.2857143092093278 -0.2857143092093278 0.2857143092093278 1.0 
      0.32142856177610185 -0.32142856177610185 0.32142856177610185 1.0 
      0.35714287207790296 -0.35714287207790296 0.35714287207790296 1.0 
      0.3928571246446771 -0.3928571246446771 0.3928571246446771 1.0 
      0.42857143494647815 -0.42857143494647815 0.42857143494647815 1.0 
      0.4642856875132523 -0.4642856875132523 0.4642856875132523 1.0 
      0.4999999978150533 -0.4999999978150533 0.4999999978150533 1.0 
      0.4499999633925319 -0.4499999633925319 0.4999999978150534 1.0 
      0.40000004444006426 -0.40000004444006426 0.49999999781505344 1.0 
      0.35000001001754283 -0.35000001001754283 0.49999999781505344 1.0 
      0.29999997559502123 -0.29999997559502123 0.4999999978150534 1.0 
      0.2499999989075267 -0.2499999989075267 0.5000000555500803 1.0 
      0.2000000222200321 -0.2000000222200321 0.4999999978150534 1.0 
      0.14999998779751061 -0.14999998779751061 0.4999999978150534 1.0 
      0.09999995337498914 -0.09999995337498914 0.4999999978150534 1.0 
      0.0500000344225215 -0.0500000344225215 0.4999999978150534 1.0 
      -1.741778208345302e-17 1.741778208345302e-17 0.4999999978150533 1.0 
      1.2734287440180276e-17 -1.2734287440180276e-17 0.4545454420618618 1.0 
      1.371268191618309e-18 -1.371268191618309e-18 0.40909088630867024 1.0 
      -9.991751056943658e-18 9.991751056943658e-18 0.36363633055547867 1.0 
      -3.685022075152754e-18 3.685022075152754e-18 0.3181817748022871 1.0 
      2.62170690663815e-18 -2.62170690663815e-18 0.2727272190490955 1.0 
      -2.369740759738301e-18 2.369740759738301e-18 0.2272727787659578 1.0 
      3.936988222052603e-18 -3.936988222052603e-18 0.18181822301276623 1.0 
      -4.338234870764602e-18 4.338234870764602e-18 0.1363636672595747 1.0 
      1.9684941110263016e-18 -1.9684941110263016e-18 0.09090911150638312 1.0 
      9.842470555131508e-19 -9.842470555131508e-19 0.04545455575319156 1.0 
      0.0 0.0 0.0 1.0 
      0.01785715515090053 0.01785715515090053 0.01785715515090053 1.0 
      0.03571431030180106 0.03571431030180106 0.03571431030180106 1.0 
      0.05357140771767467 0.05357140771767468 0.05357140771767467 1.0 
      0.07142856286857521 0.0714285628685752 0.07142856286857521 1.0 
      0.08928571801947574 0.08928571801947573 0.08928571801947574 1.0 
      0.10714287317037625 0.10714287317037627 0.10714287317037625 1.0 
      0.1250000283212768 0.1250000283212768 0.1250000283212768 1.0 
      0.14285712573715043 0.1428571257371504 0.14285712573715043 1.0 
      0.16071428088805093 0.1607142808880509 0.16071428088805093 1.0 
      0.17857143603895148 0.17857143603895145 0.17857143603895148 1.0 
      0.19642859118985198 0.19642859118985204 0.19642859118985198 1.0 
      0.21428568860572558 0.21428568860572558 0.21428568860572558 1.0 
      0.23214284375662614 0.2321428437566261 0.23214284375662614 1.0 
      0.24999999890752664 0.2499999989075267 0.24999999890752664 1.0 
   } 
   MaxAngularMomentum = { 
      Ta = f 
   } 
   MaxSCCIterations = 1 
   OrbitalResolvedSCC = No 
   PolynomialRepulsive = SetForAll {Yes} 
   ReadInitialCharges = Yes 
   SCC = Yes 
   SCCTolerance = 1000000.0 
   SlaterKosterFiles = Type2FileNames{ 
      Prefix = /home/inukai/tango/tests/1element/qe_fit_v2_Ta/ 
      Separator = "-" 
      Suffix = ".skf" 
      } 
   } 
Options { 
   WriteResultsTag = Yes 
} 
ParserOptions { 
   IgnoreUnprocessedNodes = Yes  
} 
