Geometry = GenFormat { 
    <<< "geo_end.gen" 
} 
 
Hamiltonian = DFTB{ 
   KPointsAndWeights = { 
      0.0 0.0 0.0 1.0 
      0.0357143 2.569250000125938e-08 0.0 1.0 
      0.0714286 -3.521749999553149e-08 0.0 1.0 
      0.10714290000000001 -9.525000000898264e-09 0.0 1.0 
      0.1428571 -2.043499998786033e-08 0.0 1.0 
      0.1785714 5.257500015607768e-09 0.0 1.0 
      0.2142857 -5.5652499974556945e-08 0.0 1.0 
      0.25 -2.995999997108885e-08 0.0 1.0 
      0.2857143 -9.086999997892331e-08 0.0 1.0 
      0.3214286 -6.517749999312497e-08 0.0 1.0 
      0.3571429 -1.2608749998328968e-07 0.0 1.0 
      0.3928571 -5.039499999428868e-08 0.0 1.0 
      0.4285714 -1.1130499994911389e-07 0.0 1.0 
      0.46428569999999997 -8.561249996331555e-08 0.0 1.0 
      0.5 -1.4652249991814076e-07 0.0 1.0 
      0.4791667 0.0416664959875 0.0 1.0 
      0.4583333 0.08333318849750002 0.0 1.0 
      0.4375 0.1249998310075 0.0 1.0 
      0.41666669999999995 0.16666647351750005 0.0 1.0 
      0.3958333 0.20833316602750002 0.0 1.0 
      0.375 0.2499998085375 0.0 1.0 
      0.3541667 0.2916664510475 0.0 1.0 
      0.3333333 0.3333331435575 0.0 1.0 
      0.31481479999999995 0.31481464168250006 0.0 1.0 
      0.2962963 0.296296053205 0.0 1.0 
      0.2777778000000001 0.27777755133000004 0.0 1.0 
      0.2592593 0.259259049455 0.0 1.0 
      0.2407407 0.24074059758000008 0.0 1.0 
      0.2222222 0.22222209570500004 0.0 1.0 
      0.20370369999999996 0.20370359383000006 0.0 1.0 
      0.1851852 0.18518500535250002 0.0 1.0 
      0.1666667 0.16666650347750006 0.0 1.0 
      0.1481481 0.1481480516025 0.0 1.0 
      0.1296296 0.12962954972750002 0.0 1.0 
      0.1111111 0.11111104785250002 0.0 1.0 
      0.0925926 0.09259254597750001 0.0 1.0 
      0.0740741 0.07407404410250001 0.0 1.0 
      0.0555556 0.05555545562500001 0.0 1.0 
      0.037037 0.03703700375 0.0 1.0 
      0.0185185 0.018518501875 0.0 1.0 
      0.0 0.0 0.0 1.0 
      0.0 0.0 0.05555559316839999 1.0 
      0.0 0.0 0.11111118633679998 1.0 
      0.0 0.0 0.1666667795052 1.0 
      0.0 0.0 0.22222221285289995 1.0 
      0.0 0.0 0.27777780602130003 1.0 
      0.0 0.0 0.33333339918969995 1.0 
      0.0 0.0 0.3888889923581 1.0 
      0.0 0.0 0.4444445855264999 1.0 
      0.0 0.0 0.5000001786948999 1.0 
   } 
   MaxAngularMomentum = { 
      Tl = f 
   } 
   MaxSCCIterations = 1 
   OrbitalResolvedSCC = No 
   PolynomialRepulsive = SetForAll {Yes} 
   ReadInitialCharges = Yes 
   SCC = Yes 
   SCCTolerance = 1000000.0 
   SlaterKosterFiles = Type2FileNames{ 
      Prefix = /home/inukai/tango/tests/1element/qe_fit_v2_Tl/ 
      Separator = "-" 
      Suffix = ".skf" 
      } 
   } 
Options { 
   WriteResultsTag = Yes 
} 
ParserOptions { 
   IgnoreUnprocessedNodes = Yes  
} 
