Geometry = GenFormat { 
    <<< "geo_end.gen" 
} 
 
Hamiltonian = DFTB{ 
   KPointsAndWeights = { 
      0.0 0.0 0.0 1.0 
      0.03571428571428571 -0.03571428571428571 0.03571428571428571 1.0 
      0.07142857142857142 -0.07142857142857142 0.07142857142857142 1.0 
      0.10714285714285714 -0.10714285714285714 0.10714285714285714 1.0 
      0.14285714285714285 -0.14285714285714285 0.14285714285714285 1.0 
      0.17857142857142855 -0.17857142857142855 0.17857142857142855 1.0 
      0.21428571428571427 -0.21428571428571427 0.21428571428571427 1.0 
      0.25 -0.25 0.25 1.0 
      0.2857142857142857 -0.2857142857142857 0.2857142857142857 1.0 
      0.3214285714285714 -0.3214285714285714 0.3214285714285714 1.0 
      0.3571428571428571 -0.3571428571428571 0.3571428571428571 1.0 
      0.39285714285714285 -0.39285714285714285 0.39285714285714285 1.0 
      0.42857142857142855 -0.42857142857142855 0.42857142857142855 1.0 
      0.46428571428571425 -0.46428571428571425 0.46428571428571425 1.0 
      0.5 -0.5 0.5 1.0 
      0.45 -0.45 0.5 1.0 
      0.4 -0.4 0.5 1.0 
      0.35 -0.35 0.5 1.0 
      0.3 -0.3 0.5 1.0 
      0.25 -0.25 0.5 1.0 
      0.19999999999999996 -0.19999999999999996 0.5 1.0 
      0.14999999999999997 -0.14999999999999997 0.5 1.0 
      0.09999999999999998 -0.09999999999999998 0.5 1.0 
      0.04999999999999999 -0.04999999999999999 0.5 1.0 
      0.0 0.0 0.5 1.0 
      0.0 0.0 0.45454545454545453 1.0 
      0.0 0.0 0.40909090909090906 1.0 
      0.0 0.0 0.36363636363636365 1.0 
      0.0 0.0 0.3181818181818182 1.0 
      0.0 0.0 0.2727272727272727 1.0 
      0.0 0.0 0.2272727272727273 1.0 
      0.0 0.0 0.18181818181818182 1.0 
      0.0 0.0 0.13636363636363635 1.0 
      0.0 0.0 0.09090909090909088 1.0 
      0.0 0.0 0.045454545454545414 1.0 
      0.0 0.0 0.0 1.0 
      0.017857142857142856 0.017857142857142856 0.017857142857142856 1.0 
      0.03571428571428571 0.03571428571428571 0.03571428571428571 1.0 
      0.05357142857142857 0.05357142857142857 0.05357142857142857 1.0 
      0.07142857142857142 0.07142857142857142 0.07142857142857142 1.0 
      0.08928571428571427 0.08928571428571427 0.08928571428571427 1.0 
      0.10714285714285714 0.10714285714285714 0.10714285714285714 1.0 
      0.125 0.125 0.125 1.0 
      0.14285714285714285 0.14285714285714285 0.14285714285714285 1.0 
      0.1607142857142857 0.1607142857142857 0.1607142857142857 1.0 
      0.17857142857142855 0.17857142857142855 0.17857142857142855 1.0 
      0.19642857142857142 0.19642857142857142 0.19642857142857142 1.0 
      0.21428571428571427 0.21428571428571427 0.21428571428571427 1.0 
      0.23214285714285712 0.23214285714285712 0.23214285714285712 1.0 
      0.25 0.25 0.25 1.0 
   } 
   MaxAngularMomentum = { 
      Nb = d 
   } 
   MaxSCCIterations = 1 
   OrbitalResolvedSCC = No 
   PolynomialRepulsive = SetForAll {Yes} 
   ReadInitialCharges = Yes 
   SCC = Yes 
   SCCTolerance = 1000000.0 
   SlaterKosterFiles = Type2FileNames{ 
      Prefix = /home/inukai/tango/tests/1element/gpaw_fit_Nb/ 
      Separator = "-" 
      Suffix = ".skf" 
      } 
   } 
Options { 
   WriteResultsTag = Yes 
} 
ParserOptions { 
   IgnoreUnprocessedNodes = Yes  
} 
