Geometry = GenFormat { 
    <<< "geo_end.gen" 
} 
 
Hamiltonian = DFTB{ 
   KPointsAndWeights = { 
      0.0 0.0 0.0 1.0 
      0.03571428571428571 0.0 0.0 1.0 
      0.07142857142857142 0.0 0.0 1.0 
      0.10714285714285714 0.0 0.0 1.0 
      0.14285714285714285 0.0 0.0 1.0 
      0.17857142857142855 0.0 0.0 1.0 
      0.21428571428571427 0.0 0.0 1.0 
      0.25 0.0 0.0 1.0 
      0.2857142857142857 0.0 0.0 1.0 
      0.3214285714285714 0.0 0.0 1.0 
      0.3571428571428571 0.0 0.0 1.0 
      0.39285714285714285 0.0 0.0 1.0 
      0.42857142857142855 0.0 0.0 1.0 
      0.46428571428571425 0.0 0.0 1.0 
      0.5 0.0 0.0 1.0 
      0.4791666666666667 0.041666666666666664 0.0 1.0 
      0.4583333333333333 0.08333333333333333 0.0 1.0 
      0.4375 0.125 0.0 1.0 
      0.41666666666666663 0.16666666666666666 0.0 1.0 
      0.3958333333333333 0.20833333333333331 0.0 1.0 
      0.375 0.25 0.0 1.0 
      0.35416666666666663 0.29166666666666663 0.0 1.0 
      0.3333333333333333 0.3333333333333333 0.0 1.0 
      0.3137254901960784 0.3137254901960784 0.0 1.0 
      0.2941176470588235 0.2941176470588235 0.0 1.0 
      0.2745098039215686 0.2745098039215686 0.0 1.0 
      0.2549019607843137 0.2549019607843137 0.0 1.0 
      0.23529411764705882 0.23529411764705882 0.0 1.0 
      0.21568627450980393 0.21568627450980393 0.0 1.0 
      0.19607843137254902 0.19607843137254902 0.0 1.0 
      0.1764705882352941 0.1764705882352941 0.0 1.0 
      0.1568627450980392 0.1568627450980392 0.0 1.0 
      0.1372549019607843 0.1372549019607843 0.0 1.0 
      0.11764705882352938 0.11764705882352938 0.0 1.0 
      0.09803921568627452 0.09803921568627452 0.0 1.0 
      0.0784313725490196 0.0784313725490196 0.0 1.0 
      0.05882352941176472 0.05882352941176472 0.0 1.0 
      0.03921568627450983 0.03921568627450983 0.0 1.0 
      0.019607843137254888 0.019607843137254888 0.0 1.0 
      0.0 0.0 0.0 1.0 
      0.0 0.0 0.05 1.0 
      0.0 0.0 0.1 1.0 
      0.0 0.0 0.15000000000000002 1.0 
      0.0 0.0 0.2 1.0 
      0.0 0.0 0.25 1.0 
      0.0 0.0 0.30000000000000004 1.0 
      0.0 0.0 0.35000000000000003 1.0 
      0.0 0.0 0.4 1.0 
      0.0 0.0 0.45 1.0 
      0.0 0.0 0.5 1.0 
   } 
   MaxAngularMomentum = { 
      Te = d 
   } 
   MaxSCCIterations = 1 
   OrbitalResolvedSCC = No 
   PolynomialRepulsive = SetForAll {Yes} 
   ReadInitialCharges = Yes 
   SCC = Yes 
   SCCTolerance = 1000000.0 
   SlaterKosterFiles = Type2FileNames{ 
      Prefix = /home/inukai/tango/tests/1element/gpaw_fit_Te/ 
      Separator = "-" 
      Suffix = ".skf" 
      } 
   } 
Options { 
   WriteResultsTag = Yes 
} 
ParserOptions { 
   IgnoreUnprocessedNodes = Yes  
} 
