Geometry = GenFormat {
2  S
Ti
1      1      0.000000000000000      0.000000000000000      0.000000000000000
2      1      0.000000000000000      1.703760644378586      2.343000000000000
0.000000000000000      0.000000000000000      0.000000000000000
2.951000000000000      0.000000000000000      0.000000000000000
-1.475500000000000      2.555640966567879      0.000000000000000
0.000000000000000      0.000000000000000      4.686000000000000
}
Hamiltonian = DFTB {
  KPointsAndWeights = {
0.0 0.0 0.0 1.0
0.0357143 2.5692500003324065e-08 0.0 1.0
0.0714286 -3.521749999581956e-08 0.0 1.0
0.10714290000000001 -9.525000007848294e-09 0.0 1.0
0.1428571 -2.043499998964448e-08 0.0 1.0
0.1785714 5.257500013679587e-09 0.0 1.0
0.2142857 -5.565249998966502e-08 0.0 1.0
0.25000000000000006 -2.995999998634095e-08 0.0 1.0
0.28571430000000003 -9.086999999431945e-08 0.0 1.0
0.32142860000000006 -6.517750000866514e-08 0.0 1.0
0.3571429 -1.2608749999897387e-07 0.0 1.0
0.39285710000000007 -5.039499998902129e-08 0.0 1.0
0.4285714 -1.1130499997933004e-07 0.0 1.0
0.4642857 -8.561249999367572e-08 0.0 1.0
0.5000000000000001 -1.4652249998398447e-07 0.0 1.0
0.4791667000000001 0.04166649598749996 0.0 1.0
0.45833330000000005 0.08333318849750002 0.0 1.0
0.43750000000000006 0.12499983100749999 0.0 1.0
0.4166667 0.1666664735175 0.0 1.0
0.39583330000000005 0.2083331660275 0.0 1.0
0.375 0.2499998085375 0.0 1.0
0.3541667 0.2916664510475 0.0 1.0
0.33333330000000005 0.3333331435575 0.0 1.0
0.3148148 0.31481464168250006 0.0 1.0
0.2962963 0.296296053205 0.0 1.0
0.2777778000000001 0.27777755133 0.0 1.0
0.2592593 0.259259049455 0.0 1.0
0.2407407 0.24074059758 0.0 1.0
0.2222222 0.22222209570500004 0.0 1.0
0.20370370000000002 0.20370359383000003 0.0 1.0
0.18518520000000002 0.18518500535250002 0.0 1.0
0.1666667 0.16666650347750003 0.0 1.0
0.1481481 0.1481480516025 0.0 1.0
0.12962960000000004 0.12962954972750002 0.0 1.0
0.1111111 0.11111104785250002 0.0 1.0
0.09259260000000001 0.09259254597750001 0.0 1.0
0.0740741 0.07407404410249999 0.0 1.0
0.0555556 0.055555455625 0.0 1.0
0.037037 0.037037003750000005 0.0 1.0
0.0185185 0.018518501875000003 0.0 1.0
0.0 0.0 0.0 1.0
0.0 0.0 0.055555528896 1.0
0.0 0.0 0.111111057792 1.0
0.0 0.0 0.16666658668800002 1.0
0.0 0.0 0.222222115584 1.0
0.0 0.0 0.2777778032736001 1.0
0.0 0.0 0.33333333216960004 1.0
0.0 0.0 0.38888886106560006 1.0
0.0 0.0 0.4444443899616 1.0
0.0 0.0 0.49999991885760003 1.0
  }
  MaxAngularMomentum = {
    Ti = d
  }
  MaxSCCIterations = 1
  OrbitalResolvedSCC = No
  PolynomialRepulsive = SetForAll {
Yes
  }
  ReadInitialCharges = Yes
  SCC = Yes
  SCCTolerance = 1000000.0
  SlaterKosterFiles = Type2FileNames {
    Prefix = /home/inukai/tango/tests/1element/qe_fit_v2_Ti/
    Separator = "-"
    Suffix = ".skf"
    LowerCaseTypeName = No
  }
  OldSKInterpolation = No
  Mixer = Broyden {
    MixingParameter = 0.20000000000000001
    CachedIterations = -1
    InverseJacobiWeight = 1.0000000000000000E-002
    MinimalWeight = 1.0000000000000000
    MaximalWeight = 100000.00000000000
    WeightFactor = 1.0000000000000000E-002
  }
  DampXH = No
  EwaldParameter = 0.0000000000000000
  SpinPolarisation = {}
  ElectricField = {}
  Eigensolver = RelativelyRobust {}
  Filling = Fermi {
    Temperature = 0.0000000000000000
    IndependentKFilling = No
  }
  Charge = 0.0000000000000000
  Dispersion = {}
  ThirdOrder = No
  ThirdOrderFull = No
  Differentiation = FiniteDiff {
    Delta = 1.2207031250000000E-004
  }
  ForceEvaluation = "Traditional"
}
Options = {
  WriteResultsTag = Yes
  WriteAutotestTag = No
  WriteDetailedXML = No
  WriteDetailedOut = Yes
  RestartFrequency = 20
  RandomSeed = 0
  WriteHS = No
  WriteRealHS = No
  MinimiseMemoryUsage = No
  ShowFoldedCoords = No
}
ParserOptions = {
  IgnoreUnprocessedNodes = Yes
  ParserVersion = 5
  WriteHSDInput = Yes
  WriteXMLInput = No
  StopAfterParsing = No
}
Driver = {}
ExcitedState = {}
Analysis = {
  ProjectStates = {}
  MullikenAnalysis = Yes
  AtomResolvedEnergies = No
  WriteEigenvectors = No
  WriteBandOut = Yes
  CalculateForces = No
}
