Geometry = GenFormat { 
    <<< "geo_end.gen" 
} 
 
Hamiltonian = DFTB{ 
   KPointsAndWeights = { 
      0.0 0.0 0.0 1.0 
      0.06965929264308236 -0.07319785021406049 0.06965929264308236 1.0 
      0.13931858528616473 -0.14639570042812097 0.13931858528616473 1.0 
      0.20897787792924707 -0.21959355064218147 0.20897787792924707 1.0 
      0.27863717057232945 -0.29279140085624195 0.27863717057232945 1.0 
      0.3482964632154118 -0.3659892510703024 0.3482964632154118 1.0 
      0.41795575585849415 -0.43918710128436295 0.41795575585849415 1.0 
      0.48761504850157655 -0.5123849514984234 0.48761504850157655 1.0 
      0.5 -0.5 0.5 1.0 
      0.49690376212539417 -0.3780962378746059 0.49690376212539417 1.0 
      0.4938075242507883 -0.2561924757492117 0.4938075242507883 1.0 
      0.49071128637618244 -0.13428871362381756 0.49071128637618244 1.0 
      0.48761504850157655 -0.012384951498423447 0.48761504850157655 1.0 
      0.4845188106269707 0.10951881062697066 0.4845188106269707 1.0 
      0.4814225727523649 0.23142257275236489 0.4814225727523649 1.0 
      0.478326334877759 0.353326334877759 0.478326334877759 1.0 
      0.47523009700315316 0.47523009700315316 0.47523009700315316 1.0 
      0.40734008314555986 0.40734008314555986 0.40734008314555986 1.0 
      0.33945006928796656 0.33945006928796656 0.33945006928796656 1.0 
      0.27156005543037326 0.27156005543037326 0.27156005543037326 1.0 
      0.20367004157277996 0.20367004157277996 0.20367004157277996 1.0 
      0.13578002771518666 0.13578002771518666 0.13578002771518666 1.0 
      0.06789001385759336 0.06789001385759336 0.06789001385759336 1.0 
      0.0 0.0 0.0 1.0 
      0.08333333333333333 -0.08333333333333333 0.0 1.0 
      0.16666666666666666 -0.16666666666666666 0.0 1.0 
      0.25 -0.25 0.0 1.0 
      0.3333333333333333 -0.3333333333333333 0.0 1.0 
      0.41666666666666663 -0.41666666666666663 0.0 1.0 
      0.5 -0.5 0.0 1.0 
      0.5030962378746059 -0.4969037621253941 -0.12190376212539414 1.0 
      0.5061924757492118 -0.4938075242507883 -0.24380752425078828 1.0 
      0.5092887136238176 -0.49071128637618244 -0.36571128637618244 1.0 
      0.5123849514984234 -0.48761504850157655 -0.48761504850157655 1.0 
      0.5247699029968469 -0.47523009700315316 -0.47523009700315316 1.0 
      0.5212313454258688 -0.40734008314555986 -0.40734008314555986 1.0 
      0.5176927878548906 -0.33945006928796656 -0.33945006928796656 1.0 
      0.5141542302839125 -0.27156005543037326 -0.27156005543037326 1.0 
      0.5106156727129344 -0.20367004157277996 -0.20367004157277996 1.0 
      0.5070771151419563 -0.13578002771518666 -0.13578002771518666 1.0 
      0.5035385575709781 -0.06789001385759336 -0.06789001385759336 1.0 
      0.5 0.0 0.0 1.0 
      0.5 -0.0625 0.0625 1.0 
      0.5 -0.125 0.125 1.0 
      0.5 -0.1875 0.1875 1.0 
      0.5 -0.25 0.25 1.0 
      0.5 -0.3125 0.3125 1.0 
      0.5 -0.375 0.375 1.0 
      0.5 -0.4375 0.4375 1.0 
      0.5 -0.5 0.5 1.0 
   } 
   MaxAngularMomentum = { 
      S = d 
   } 
   MaxSCCIterations = 1 
   OrbitalResolvedSCC = No 
   PolynomialRepulsive = SetForAll {Yes} 
   ReadInitialCharges = Yes 
   SCC = Yes 
   SCCTolerance = 1000000.0 
   SlaterKosterFiles = Type2FileNames{ 
      Prefix = /home/inukai/tango/tests/1element/gpaw_fit_v3_S/ 
      Separator = "-" 
      Suffix = ".skf" 
      } 
   } 
Options { 
   WriteResultsTag = Yes 
} 
ParserOptions { 
   IgnoreUnprocessedNodes = Yes  
} 
