Geometry = GenFormat {
2  S
Zr
1      1      0.000000032360281      1.868321618221950      3.892146000000000
2      1      1.618013967639720      0.934160837135800      1.297382000000000
0.000000000000000      0.000000000000000      0.000000000000000
3.236028000000000      0.000000000000000      0.000000000000000
-1.618013999999999      2.802482455357750      0.000000000000000
0.000000000000000      0.000000000000000      5.189528000000000
}
Hamiltonian = DFTB {
  KPointsAndWeights = {
0.0 0.0 0.0 1.0
0.08333329999999999 -2.2187499993867044e-08 0.0 1.0
0.16666669999999997 -9.437499998920839e-08 0.0 1.0
0.25 -2.995999997008547e-08 0.0 1.0
0.3333333 -5.2147499965639914e-08 0.0 1.0
0.4166667 -1.243350000089283e-07 0.0 1.0
0.5 -1.465224999514735e-07 0.0 1.0
0.4444444 0.11111099570500002 0.0 1.0
0.3888889 0.22222200133 0.0 1.0
0.3333333 0.3333331435575 0.0 1.0
0.2916667 0.29166645853749995 0.0 1.0
0.25 0.2499998235175 0.0 1.0
0.2083333 0.20833318849750002 0.0 1.0
0.16666669999999997 0.16666650347750003 0.0 1.0
0.125 0.12499995506000001 0.0 1.0
0.08333329999999999 0.08333332004000003 0.0 1.0
0.041666699999999994 0.041666635020000016 0.0 1.0
0.0 0.0 0.0 1.0
0.0 0.0 0.16666658398319997 1.0
0.0 0.0 0.33333332833359997 1.0
0.0 0.0 0.4999999123168 1.0
0.0714286 -3.5217499998147364e-08 0.4999999123168 1.0
0.1428571 -2.043499999482043e-08 0.4999999123168 1.0
0.2142857 -5.5652499995697835e-08 0.4999999123168 1.0
0.2857143 -9.086999999111516e-08 0.4999999123168 1.0
0.35714289999999993 -1.2608749996886272e-07 0.4999999123168 1.0
0.4285714 -1.1130499999139567e-07 0.4999999123168 1.0
0.5 -1.465224999514735e-07 0.4999999123168 1.0
0.4583333 0.08333318849750003 0.4999999123168 1.0
0.4166667 0.1666664735175 0.4999999123168 1.0
0.375 0.24999980853749995 0.4999999123168 1.0
0.3333333 0.3333331435575 0.4999999123168 1.0
0.2962963 0.296296053205 0.4999999123168 1.0
0.2592593 0.259259049455 0.4999999123168 1.0
0.2222222 0.22222209570500004 0.4999999123168 1.0
0.1851852 0.18518500535250002 0.4999999123168 1.0
0.1481481 0.1481480516025 0.4999999123168 1.0
0.1111111 0.11111104785250002 0.4999999123168 1.0
0.0740741 0.07407404410250001 0.4999999123168 1.0
0.037037 0.03703700375 0.4999999123168 1.0
0.0 0.0 0.4999999123168 1.0
0.5 -1.465224999514735e-07 0.4999999123168 1.0
0.5 -1.465224999514735e-07 0.33333332833359997 1.0
0.5 -1.465224999514735e-07 0.16666658398319997 1.0
0.5 -1.465224999514735e-07 0.0 1.0
0.3333333 0.3333331435575 0.0 1.0
0.3333333 0.3333331435575 0.1249999780792 1.0
0.3333333 0.3333331435575 0.2499999561584 1.0
0.3333333 0.3333331435575 0.3749999342376 1.0
0.3333333 0.3333331435575 0.4999999123168 1.0
  }
  MaxAngularMomentum = {
    Zr = d
  }
  MaxSCCIterations = 1
  OrbitalResolvedSCC = No
  PolynomialRepulsive = SetForAll {
Yes
  }
  ReadInitialCharges = Yes
  SCC = Yes
  SCCTolerance = 1000000.0
  SlaterKosterFiles = Type2FileNames {
    Prefix = /home/inukai/tango/tests/1element/qe_fit_v3_Zr/
    Separator = "-"
    Suffix = ".skf"
    LowerCaseTypeName = No
  }
  OldSKInterpolation = No
  Mixer = Broyden {
    MixingParameter = 0.20000000000000001
    CachedIterations = -1
    InverseJacobiWeight = 1.0000000000000000E-002
    MinimalWeight = 1.0000000000000000
    MaximalWeight = 100000.00000000000
    WeightFactor = 1.0000000000000000E-002
  }
  DampXH = No
  EwaldParameter = 0.0000000000000000
  SpinPolarisation = {}
  ElectricField = {}
  Eigensolver = RelativelyRobust {}
  Filling = Fermi {
    Temperature = 0.0000000000000000
    IndependentKFilling = No
  }
  Charge = 0.0000000000000000
  Dispersion = {}
  ThirdOrder = No
  ThirdOrderFull = No
  Differentiation = FiniteDiff {
    Delta = 1.2207031250000000E-004
  }
  ForceEvaluation = "Traditional"
}
Options = {
  WriteResultsTag = Yes
  WriteAutotestTag = No
  WriteDetailedXML = No
  WriteDetailedOut = Yes
  RestartFrequency = 20
  RandomSeed = 0
  WriteHS = No
  WriteRealHS = No
  MinimiseMemoryUsage = No
  ShowFoldedCoords = No
}
ParserOptions = {
  IgnoreUnprocessedNodes = Yes
  ParserVersion = 5
  WriteHSDInput = Yes
  WriteXMLInput = No
  StopAfterParsing = No
}
Driver = {}
ExcitedState = {}
Analysis = {
  ProjectStates = {}
  MullikenAnalysis = Yes
  AtomResolvedEnergies = No
  WriteEigenvectors = No
  WriteBandOut = Yes
  CalculateForces = No
}
