Geometry = GenFormat { 
    <<< "geo_end.gen" 
} 
 
Hamiltonian = DFTB{ 
   KPointsAndWeights = { 
      0.0 0.0 0.0 1.0 
      0.03571431030180106 -0.03571431030180106 0.03571431030180106 1.0 
      0.0714285628685752 -0.0714285628685752 0.0714285628685752 1.0 
      0.10714287317037625 -0.10714287317037625 0.10714287317037625 1.0 
      0.1428571257371504 -0.1428571257371504 0.1428571257371504 1.0 
      0.17857143603895145 -0.17857143603895145 0.17857143603895145 1.0 
      0.21428568860572558 -0.21428568860572558 0.21428568860572558 1.0 
      0.24999999890752664 -0.24999999890752664 0.24999999890752664 1.0 
      0.2857143092093277 -0.2857143092093277 0.2857143092093277 1.0 
      0.3214285617761018 -0.3214285617761018 0.3214285617761018 1.0 
      0.3571428720779029 -0.3571428720779029 0.3571428720779029 1.0 
      0.3928571246446771 -0.3928571246446771 0.3928571246446771 1.0 
      0.4285714349464781 -0.4285714349464781 0.4285714349464781 1.0 
      0.4642856875132523 -0.4642856875132523 0.4642856875132523 1.0 
      0.4999999978150533 -0.4999999978150533 0.4999999978150533 1.0 
      0.4499999633925318 -0.4499999633925318 0.4999999978150533 1.0 
      0.40000004444006415 -0.40000004444006415 0.4999999978150533 1.0 
      0.3500000100175427 -0.3500000100175427 0.4999999978150534 1.0 
      0.2999999755950212 -0.2999999755950212 0.4999999978150533 1.0 
      0.24999999890752672 -0.24999999890752672 0.5000000555500803 1.0 
      0.2000000222200321 -0.2000000222200321 0.4999999978150534 1.0 
      0.14999998779751061 -0.14999998779751061 0.4999999978150534 1.0 
      0.09999995337498914 -0.09999995337498914 0.4999999978150534 1.0 
      0.050000034422521496 -0.050000034422521496 0.4999999978150533 1.0 
      1.3176710162033994e-17 -1.3176710162033994e-17 0.4999999978150533 1.0 
      9.93288372373925e-18 -9.93288372373925e-18 0.45454544206186176 1.0 
      6.689057285444508e-18 -6.689057285444508e-18 0.40909088630867024 1.0 
      -7.580715857329673e-18 7.580715857329673e-18 0.36363633055547856 1.0 
      6.845205934728454e-18 -6.845205934728454e-18 0.3181817748022871 1.0 
      -1.9115938558060085e-18 1.9115938558060085e-18 0.27272721904909547 1.0 
      1.750424636069908e-19 -1.750424636069908e-19 0.2272727787659578 1.0 
      -8.581757326927472e-18 8.581757326927472e-18 0.1818182230127662 1.0 
      3.0876777890107967e-18 -3.0876777890107967e-18 0.1363636672595747 1.0 
      -4.290878663463736e-18 4.290878663463736e-18 0.0909091115063831 1.0 
      -2.145439331731868e-18 2.145439331731868e-18 0.04545455575319155 1.0 
      0.0 0.0 0.0 1.0 
      0.01785715515090053 0.01785715515090053 0.01785715515090053 1.0 
      0.03571431030180106 0.03571431030180106 0.03571431030180106 1.0 
      0.05357140771767466 0.05357140771767467 0.05357140771767466 1.0 
      0.0714285628685752 0.0714285628685752 0.0714285628685752 1.0 
      0.08928571801947573 0.08928571801947573 0.08928571801947573 1.0 
      0.10714287317037625 0.10714287317037625 0.10714287317037625 1.0 
      0.12500002832127677 0.12500002832127677 0.12500002832127677 1.0 
      0.1428571257371504 0.1428571257371504 0.1428571257371504 1.0 
      0.1607142808880509 0.1607142808880509 0.1607142808880509 1.0 
      0.17857143603895145 0.17857143603895145 0.17857143603895145 1.0 
      0.19642859118985195 0.19642859118985195 0.19642859118985195 1.0 
      0.21428568860572558 0.21428568860572555 0.21428568860572558 1.0 
      0.23214284375662614 0.2321428437566261 0.23214284375662614 1.0 
      0.24999999890752664 0.2499999989075266 0.24999999890752664 1.0 
   } 
   MaxAngularMomentum = { 
      Ga = d 
   } 
   MaxSCCIterations = 1 
   OrbitalResolvedSCC = No 
   PolynomialRepulsive = SetForAll {Yes} 
   ReadInitialCharges = Yes 
   SCC = Yes 
   SCCTolerance = 1000000.0 
   SlaterKosterFiles = Type2FileNames{ 
      Prefix = /home/inukai/tango/tests/1element/qe_fit_v2_Ga/ 
      Separator = "-" 
      Suffix = ".skf" 
      } 
   } 
Options { 
   WriteResultsTag = Yes 
} 
ParserOptions { 
   IgnoreUnprocessedNodes = Yes  
} 
