Geometry = GenFormat {
2  S
Co
1      1      0.000000024967990      1.441527560347113      3.023106000000000
2      1      1.248399475032010      0.720763801796470      1.007702000000000
0.000000000000000      0.000000000000000      0.000000000000000
2.496799000000000      0.000000000000000      0.000000000000000
-1.248399500000000      2.162291362143583      0.000000000000000
0.000000000000000      0.000000000000000      4.030808000000000
}
Hamiltonian = DFTB {
  KPointsAndWeights = {
0.0 0.0 0.0 1.0
0.0833333 -2.218749999693628e-08 0.0 1.0
0.16666669999999997 -9.437499999069865e-08 0.0 1.0
0.25 -2.9959999967497485e-08 0.0 1.0
0.3333333 -5.2147499973268644e-08 0.0 1.0
0.4166667 -1.2433500001559452e-07 0.0 1.0
0.5 -1.4652249994629754e-07 0.0 1.0
0.44444439999999996 0.11111099570500006 0.0 1.0
0.3888889 0.22222200133 0.0 1.0
0.3333333 0.33333314355750004 0.0 1.0
0.2916667 0.2916664585375 0.0 1.0
0.25 0.2499998235175 0.0 1.0
0.20833329999999994 0.20833318849750002 0.0 1.0
0.16666669999999997 0.16666650347750003 0.0 1.0
0.125 0.12499995506000001 0.0 1.0
0.0833333 0.08333332004000003 0.0 1.0
0.04166670000000001 0.041666635020000016 0.0 1.0
0.0 0.0 0.0 1.0
0.0 0.0 0.16666671769799998 1.0
0.0 0.0 0.33333327395699996 1.0
0.0 0.0 0.4999999916549999 1.0
0.0714286 -3.521749999268351e-08 0.4999999916549999 1.0
0.1428571 -2.0434999977511488e-08 0.4999999916549999 1.0
0.21428569999999997 -5.565249997238957e-08 0.4999999916549999 1.0
0.2857142999999999 -9.086999995184905e-08 0.4999999916549999 1.0
0.3571429 -1.2608749997542633e-07 0.4999999916549999 1.0
0.42857139999999994 -1.1130499994477915e-07 0.4999999916549999 1.0
0.5 -1.4652249994629754e-07 0.4999999916549999 1.0
0.4583333 0.08333318849750003 0.4999999916549999 1.0
0.4166667 0.1666664735175 0.4999999916549999 1.0
0.375 0.2499998085375 0.4999999916549999 1.0
0.3333333 0.33333314355750004 0.4999999916549999 1.0
0.2962963 0.296296053205 0.4999999916549999 1.0
0.2592593 0.259259049455 0.4999999916549999 1.0
0.22222219999999998 0.22222209570500007 0.4999999916549999 1.0
0.1851852 0.18518500535250002 0.4999999916549999 1.0
0.1481481 0.1481480516025 0.4999999916549999 1.0
0.11111109999999999 0.11111104785250003 0.4999999916549999 1.0
0.07407409999999999 0.07407404410250001 0.4999999916549999 1.0
0.037037 0.03703700375 0.4999999916549999 1.0
0.0 0.0 0.4999999916549999 1.0
0.5 -1.4652249994629754e-07 0.4999999916549999 1.0
0.5 -1.4652249994629754e-07 0.3749998726619999 1.0
0.5 -1.4652249994629754e-07 0.24999991510799996 1.0
0.5 -1.4652249994629754e-07 0.12499995755399998 1.0
0.5 -1.4652249994629754e-07 0.0 1.0
0.3333333 0.33333314355750004 0.0 1.0
0.3333333 0.33333314355750004 0.16666671769799998 1.0
0.3333333 0.33333314355750004 0.33333327395699996 1.0
0.3333333 0.33333314355750004 0.4999999916549999 1.0
  }
  MaxAngularMomentum = {
    Co = d
  }
  MaxSCCIterations = 1
  OrbitalResolvedSCC = No
  PolynomialRepulsive = SetForAll {
Yes
  }
  ReadInitialCharges = Yes
  SCC = Yes
  SCCTolerance = 1000000.0
  SlaterKosterFiles = Type2FileNames {
    Prefix = /home/inukai/tango/tests/1element/qe_fit_v3_Co/
    Separator = "-"
    Suffix = ".skf"
    LowerCaseTypeName = No
  }
  OldSKInterpolation = No
  Mixer = Broyden {
    MixingParameter = 0.20000000000000001
    CachedIterations = -1
    InverseJacobiWeight = 1.0000000000000000E-002
    MinimalWeight = 1.0000000000000000
    MaximalWeight = 100000.00000000000
    WeightFactor = 1.0000000000000000E-002
  }
  DampXH = No
  EwaldParameter = 0.0000000000000000
  SpinPolarisation = {}
  ElectricField = {}
  Eigensolver = RelativelyRobust {}
  Filling = Fermi {
    Temperature = 0.0000000000000000
    IndependentKFilling = No
  }
  Charge = 0.0000000000000000
  Dispersion = {}
  ThirdOrder = No
  ThirdOrderFull = No
  Differentiation = FiniteDiff {
    Delta = 1.2207031250000000E-004
  }
  ForceEvaluation = "Traditional"
}
Options = {
  WriteResultsTag = Yes
  WriteAutotestTag = No
  WriteDetailedXML = No
  WriteDetailedOut = Yes
  RestartFrequency = 20
  RandomSeed = 0
  WriteHS = No
  WriteRealHS = No
  MinimiseMemoryUsage = No
  ShowFoldedCoords = No
}
ParserOptions = {
  IgnoreUnprocessedNodes = Yes
  ParserVersion = 5
  WriteHSDInput = Yes
  WriteXMLInput = No
  StopAfterParsing = No
}
Driver = {}
ExcitedState = {}
Analysis = {
  ProjectStates = {}
  MullikenAnalysis = Yes
  AtomResolvedEnergies = No
  WriteEigenvectors = No
  WriteBandOut = Yes
  CalculateForces = No
}
