Geometry = GenFormat { 
    <<< "geo_end.gen" 
} 
 
Hamiltonian = DFTB{ 
   KPointsAndWeights = { 
      0.0 0.0 0.0 1.0 
      0.03571431030180106 -0.03571431030180106 0.03571431030180106 1.0 
      0.0714285628685752 -0.0714285628685752 0.0714285628685752 1.0 
      0.10714287317037627 -0.10714287317037627 0.10714287317037627 1.0 
      0.1428571257371504 -0.1428571257371504 0.1428571257371504 1.0 
      0.17857143603895148 -0.17857143603895148 0.17857143603895148 1.0 
      0.21428568860572564 -0.21428568860572564 0.21428568860572564 1.0 
      0.24999999890752664 -0.24999999890752664 0.24999999890752664 1.0 
      0.2857143092093278 -0.2857143092093278 0.2857143092093278 1.0 
      0.32142856177610185 -0.32142856177610185 0.32142856177610185 1.0 
      0.35714287207790296 -0.35714287207790296 0.35714287207790296 1.0 
      0.3928571246446771 -0.3928571246446771 0.3928571246446771 1.0 
      0.42857143494647815 -0.42857143494647815 0.42857143494647815 1.0 
      0.4642856875132523 -0.4642856875132523 0.4642856875132523 1.0 
      0.4999999978150533 -0.4999999978150533 0.4999999978150533 1.0 
      0.4499999633925319 -0.4499999633925319 0.4999999978150534 1.0 
      0.4000000444400642 -0.4000000444400642 0.4999999978150534 1.0 
      0.35000001001754283 -0.35000001001754283 0.49999999781505344 1.0 
      0.29999997559502123 -0.29999997559502123 0.4999999978150534 1.0 
      0.2499999989075267 -0.2499999989075267 0.5000000555500803 1.0 
      0.20000002222003208 -0.20000002222003208 0.4999999978150534 1.0 
      0.14999998779751061 -0.14999998779751061 0.4999999978150534 1.0 
      0.09999995337498918 -0.09999995337498918 0.49999999781505344 1.0 
      0.05000003442252154 -0.05000003442252154 0.4999999978150534 1.0 
      2.6220502802056024e-18 -2.6220502802056024e-18 0.4999999978150533 1.0 
      -1.2862662216091264e-17 1.2862662216091264e-17 0.45454544206186176 1.0 
      -1.5777188361517e-18 1.5777188361517e-18 0.40909088630867024 1.0 
      1.1373839593185555e-18 -1.1373839593185555e-18 0.36363633055547867 1.0 
      -5.247420891094751e-18 5.247420891094751e-18 0.3181817748022871 1.0 
      6.0375224888448145e-18 -6.0375224888448145e-18 0.2727272190490956 1.0 
      -8.23045956228812e-18 8.23045956228812e-18 0.2272727787659578 1.0 
      -1.2304364745832085e-18 1.2304364745832085e-18 0.18181822301276623 1.0 
      1.219632790179921e-18 -1.219632790179921e-18 0.1363636672595747 1.0 
      -6.152182372916043e-19 6.152182372916043e-19 0.09090911150638312 1.0 
      -3.0760911864580214e-19 3.0760911864580214e-19 0.04545455575319156 1.0 
      0.0 0.0 0.0 1.0 
      0.01785715515090053 0.01785715515090053 0.01785715515090053 1.0 
      0.03571431030180106 0.03571431030180106 0.03571431030180106 1.0 
      0.05357140771767467 0.05357140771767467 0.05357140771767467 1.0 
      0.0714285628685752 0.07142856286857521 0.0714285628685752 1.0 
      0.08928571801947574 0.08928571801947573 0.08928571801947574 1.0 
      0.10714287317037627 0.10714287317037627 0.10714287317037627 1.0 
      0.1250000283212768 0.1250000283212768 0.1250000283212768 1.0 
      0.1428571257371504 0.14285712573715043 0.1428571257371504 1.0 
      0.16071428088805093 0.16071428088805093 0.16071428088805093 1.0 
      0.17857143603895148 0.17857143603895145 0.17857143603895148 1.0 
      0.19642859118985198 0.19642859118985198 0.19642859118985198 1.0 
      0.21428568860572564 0.21428568860572558 0.21428568860572564 1.0 
      0.23214284375662614 0.23214284375662614 0.23214284375662614 1.0 
      0.24999999890752664 0.24999999890752664 0.24999999890752664 1.0 
   } 
   MaxAngularMomentum = { 
      V = d 
   } 
   MaxSCCIterations = 1 
   OrbitalResolvedSCC = No 
   PolynomialRepulsive = SetForAll {Yes} 
   ReadInitialCharges = Yes 
   SCC = Yes 
   SCCTolerance = 1000000.0 
   SlaterKosterFiles = Type2FileNames{ 
      Prefix = /home/inukai/tango/tests/1element/qe_fit_v2_V/ 
      Separator = "-" 
      Suffix = ".skf" 
      } 
   } 
Options { 
   WriteResultsTag = Yes 
} 
ParserOptions { 
   IgnoreUnprocessedNodes = Yes  
} 
