Geometry = GenFormat {
2  S
Ge
1      1      0.000000000000000      0.000000000000000      0.000000000000000
2      1      1.415000000000000      1.415000000000000      1.415000000000000
0.000000000000000      0.000000000000000      0.000000000000000
0.000000000000000      2.830000000000000      2.830000000000000
2.830000000000000      0.000000000000000      2.830000000000000
2.830000000000000      2.830000000000000      0.000000000000000
}
Hamiltonian = DFTB {
  KPointsAndWeights = {
0.5 0.5 0.5 1.0
0.4583333333333333 0.4583333333333333 0.4583333333333333 1.0
0.4166666666666667 0.4166666666666667 0.4166666666666667 1.0
0.375 0.375 0.375 1.0
0.33333333333333337 0.33333333333333337 0.33333333333333337 1.0
0.2916666666666667 0.2916666666666667 0.2916666666666667 1.0
0.25 0.25 0.25 1.0
0.20833333333333337 0.20833333333333337 0.20833333333333337 1.0
0.16666666666666669 0.16666666666666669 0.16666666666666669 1.0
0.125 0.125 0.125 1.0
0.08333333333333337 0.08333333333333337 0.08333333333333337 1.0
0.041666666666666685 0.041666666666666685 0.041666666666666685 1.0
0.0 0.0 0.0 1.0
0.03333333333333333 0.0 0.03333333333333333 1.0
0.06666666666666667 0.0 0.06666666666666667 1.0
0.1 0.0 0.1 1.0
0.13333333333333333 0.0 0.13333333333333333 1.0
0.16666666666666666 0.0 0.16666666666666666 1.0
0.2 0.0 0.2 1.0
0.23333333333333334 0.0 0.23333333333333334 1.0
0.26666666666666666 0.0 0.26666666666666666 1.0
0.3 0.0 0.3 1.0
0.3333333333333333 0.0 0.3333333333333333 1.0
0.36666666666666664 0.0 0.36666666666666664 1.0
0.4 0.0 0.4 1.0
0.43333333333333335 0.0 0.43333333333333335 1.0
0.4666666666666667 0.0 0.4666666666666667 1.0
0.5 0.0 0.5 1.0
0.525 0.05 0.525 1.0
0.55 0.1 0.55 1.0
0.575 0.15000000000000002 0.575 1.0
0.6 0.2 0.6 1.0
0.625 0.25 0.625 1.0
0.5882352941176471 0.23529411764705882 0.5882352941176471 1.0
0.5514705882352942 0.22058823529411764 0.5514705882352942 1.0
0.5147058823529411 0.20588235294117646 0.5147058823529411 1.0
0.4779411764705882 0.19117647058823528 0.4779411764705882 1.0
0.4411764705882353 0.1764705882352941 0.4411764705882353 1.0
0.40441176470588236 0.16176470588235295 0.40441176470588236 1.0
0.36764705882352944 0.14705882352941177 0.36764705882352944 1.0
0.33088235294117646 0.1323529411764706 0.33088235294117646 1.0
0.29411764705882354 0.11764705882352941 0.29411764705882354 1.0
0.25735294117647056 0.10294117647058823 0.25735294117647056 1.0
0.22058823529411764 0.08823529411764705 0.22058823529411764 1.0
0.18382352941176472 0.0735294117647059 0.18382352941176472 1.0
0.1470588235294118 0.05882352941176472 0.1470588235294118 1.0
0.11029411764705888 0.04411764705882354 0.11029411764705888 1.0
0.07352941176470584 0.02941176470588236 0.07352941176470584 1.0
0.03676470588235292 0.01470588235294118 0.03676470588235292 1.0
0.0 0.0 0.0 1.0
  }
  MaxAngularMomentum = {
    Ge = d
  }
  MaxSCCIterations = 1
  OrbitalResolvedSCC = No
  PolynomialRepulsive = SetForAll {
Yes
  }
  ReadInitialCharges = Yes
  SCC = Yes
  SCCTolerance = 1000000.0
  SlaterKosterFiles = Type2FileNames {
    Prefix = /home/inukai/tango/tests/1element/gpaw_fit_Ge/
    Separator = "-"
    Suffix = ".skf"
    LowerCaseTypeName = No
  }
  OldSKInterpolation = No
  Mixer = Broyden {
    MixingParameter = 0.20000000000000001
    CachedIterations = -1
    InverseJacobiWeight = 1.0000000000000000E-002
    MinimalWeight = 1.0000000000000000
    MaximalWeight = 100000.00000000000
    WeightFactor = 1.0000000000000000E-002
  }
  DampXH = No
  EwaldParameter = 0.0000000000000000
  SpinPolarisation = {}
  ElectricField = {}
  Eigensolver = RelativelyRobust {}
  Filling = Fermi {
    Temperature = 0.0000000000000000
    IndependentKFilling = No
  }
  Charge = 0.0000000000000000
  Dispersion = {}
  ThirdOrder = No
  ThirdOrderFull = No
  Differentiation = FiniteDiff {
    Delta = 1.2207031250000000E-004
  }
  ForceEvaluation = "Traditional"
}
Options = {
  WriteResultsTag = Yes
  WriteAutotestTag = No
  WriteDetailedXML = No
  WriteDetailedOut = Yes
  RestartFrequency = 20
  RandomSeed = 0
  WriteHS = No
  WriteRealHS = No
  MinimiseMemoryUsage = No
  ShowFoldedCoords = No
}
ParserOptions = {
  IgnoreUnprocessedNodes = Yes
  ParserVersion = 5
  WriteHSDInput = Yes
  WriteXMLInput = No
  StopAfterParsing = No
}
Driver = {}
ExcitedState = {}
Analysis = {
  ProjectStates = {}
  MullikenAnalysis = Yes
  AtomResolvedEnergies = No
  WriteEigenvectors = No
  WriteBandOut = Yes
  CalculateForces = No
}
