Geometry = GenFormat {
2  S
Hf
1      1      0.000000000000000      0.000000000000000      0.000000000000000
2      1     -0.000000000000000      1.845211460330044      2.525500000000000
0.000000000000000      0.000000000000000      0.000000000000000
3.196000000000000      0.000000000000000      0.000000000000000
-1.598000000000000      2.767817190495066      0.000000000000000
0.000000000000000      0.000000000000000      5.051000000000000
}
Hamiltonian = DFTB {
  KPointsAndWeights = {
0.0 0.0 0.0 1.0
0.0357143 2.569250000490636e-08 0.0 1.0
0.0714286 -3.521749999707241e-08 0.0 1.0
0.10714290000000001 -9.524999994374762e-09 0.0 1.0
0.14285710000000001 -2.0434999995268313e-08 0.0 1.0
0.17857140000000002 5.25750000742933e-09 0.0 1.0
0.2142857 -5.565249998350584e-08 0.0 1.0
0.25 -2.99599999808082e-08 0.0 1.0
0.28571430000000003 -9.086999998941313e-08 0.0 1.0
0.32142860000000006 -6.517750001850336e-08 0.0 1.0
0.3571429 -1.2608749995998092e-07 0.0 1.0
0.39285710000000007 -5.0394999990194636e-08 0.0 1.0
0.4285714 -1.1130499996701168e-07 0.0 1.0
0.4642857 -8.561249996076243e-08 0.0 1.0
0.5 -1.4652249997291896e-07 0.0 1.0
0.4791667 0.04166649598749998 0.0 1.0
0.4583333 0.08333318849750007 0.0 1.0
0.43750000000000006 0.12499983100750006 0.0 1.0
0.4166667 0.16666647351750008 0.0 1.0
0.39583330000000005 0.20833316602750004 0.0 1.0
0.375 0.2499998085375 0.0 1.0
0.3541667 0.2916664510475 0.0 1.0
0.3333333 0.3333331435575 0.0 1.0
0.3148148 0.3148146416825001 0.0 1.0
0.2962963 0.2962960532050001 0.0 1.0
0.2777778 0.27777755133000004 0.0 1.0
0.2592593 0.2592590494550001 0.0 1.0
0.24074070000000003 0.24074059758000008 0.0 1.0
0.2222222 0.2222220957050001 0.0 1.0
0.20370370000000002 0.20370359383000003 0.0 1.0
0.1851852 0.18518500535250004 0.0 1.0
0.1666667 0.16666650347750003 0.0 1.0
0.1481481 0.14814805160250002 0.0 1.0
0.1296296 0.12962954972750004 0.0 1.0
0.1111111 0.11111104785250005 0.0 1.0
0.0925926 0.09259254597750001 0.0 1.0
0.0740741 0.07407404410250003 0.0 1.0
0.0555556 0.05555545562500003 0.0 1.0
0.037037 0.03703700375000002 0.0 1.0
0.0185185 0.01851850187500001 0.0 1.0
0.0 0.0 0.0 1.0
0.0 0.0 0.0555556260238 1.0
0.0 0.0 0.11111109400630001 1.0
0.0 0.0 0.1666667200301 1.0
0.0 0.0 0.22222218801260002 1.0
0.0 0.0 0.2777778140364 1.0
0.0 0.0 0.33333328201890006 1.0
0.0 0.0 0.38888890804270004 1.0
0.0 0.0 0.44444437602520004 1.0
0.0 0.0 0.5000000020490001 1.0
  }
  MaxAngularMomentum = {
    Hf = f
  }
  MaxSCCIterations = 1
  OrbitalResolvedSCC = No
  PolynomialRepulsive = SetForAll {
Yes
  }
  ReadInitialCharges = Yes
  SCC = Yes
  SCCTolerance = 1000000.0
  SlaterKosterFiles = Type2FileNames {
    Prefix = /home/inukai/tango/tests/1element/qe_fit_v2_Hf/
    Separator = "-"
    Suffix = ".skf"
    LowerCaseTypeName = No
  }
  OldSKInterpolation = No
  Mixer = Broyden {
    MixingParameter = 0.20000000000000001
    CachedIterations = -1
    InverseJacobiWeight = 1.0000000000000000E-002
    MinimalWeight = 1.0000000000000000
    MaximalWeight = 100000.00000000000
    WeightFactor = 1.0000000000000000E-002
  }
  DampXH = No
  EwaldParameter = 0.0000000000000000
  SpinPolarisation = {}
  ElectricField = {}
  Eigensolver = RelativelyRobust {}
  Filling = Fermi {
    Temperature = 0.0000000000000000
    IndependentKFilling = No
  }
  Charge = 0.0000000000000000
  Dispersion = {}
  ThirdOrder = No
  ThirdOrderFull = No
  Differentiation = FiniteDiff {
    Delta = 1.2207031250000000E-004
  }
  ForceEvaluation = "Traditional"
}
Options = {
  WriteResultsTag = Yes
  WriteAutotestTag = No
  WriteDetailedXML = No
  WriteDetailedOut = Yes
  RestartFrequency = 20
  RandomSeed = 0
  WriteHS = No
  WriteRealHS = No
  MinimiseMemoryUsage = No
  ShowFoldedCoords = No
}
ParserOptions = {
  IgnoreUnprocessedNodes = Yes
  ParserVersion = 5
  WriteHSDInput = Yes
  WriteXMLInput = No
  StopAfterParsing = No
}
Driver = {}
ExcitedState = {}
Analysis = {
  ProjectStates = {}
  MullikenAnalysis = Yes
  AtomResolvedEnergies = No
  WriteEigenvectors = No
  WriteBandOut = Yes
  CalculateForces = No
}
