Geometry = GenFormat { 
    <<< "geo_end.gen" 
} 
 
Hamiltonian = DFTB{ 
   KPointsAndWeights = { 
      0.5000000133031199 0.5000000133031199 0.5000000133031199 1.0 
      0.4583333219576339 0.4583333219576339 0.4583333219576339 1.0 
      0.41666663061214776 0.41666663061214776 0.41666663061214776 1.0 
      0.3749999392666617 0.3749999392666617 0.3749999392666617 1.0 
      0.33333338934253204 0.33333338934253204 0.33333338934253204 1.0 
      0.2916666979970459 0.2916666979970459 0.2916666979970459 1.0 
      0.25000000665155997 0.25000000665155997 0.25000000665155997 1.0 
      0.20833331530607388 0.20833331530607388 0.20833331530607388 1.0 
      0.16666662396058787 0.16666662396058787 0.16666662396058787 1.0 
      0.12499993261510184 0.12499993261510184 0.12499993261510184 1.0 
      0.08333338269097205 0.08333338269097205 0.08333338269097205 1.0 
      0.04166669134548603 0.04166669134548603 0.04166669134548603 1.0 
      0.0 0.0 0.0 1.0 
      0.033333367218524444 0.0 0.033333367218524444 1.0 
      0.06666666372637077 0.0 0.06666666372637077 1.0 
      0.10000003094489522 0.0 0.10000003094489522 1.0 
      0.13333332745274154 0.0 0.13333332745274154 1.0 
      0.16666669467126602 0.0 0.16666669467126602 1.0 
      0.1999999911791123 0.0 0.1999999911791123 1.0 
      0.23333335839763678 0.0 0.23333335839763678 1.0 
      0.2666666549054831 0.0 0.2666666549054831 1.0 
      0.3000000221240075 0.0 0.3000000221240075 1.0 
      0.33333331863185384 0.0 0.33333331863185384 1.0 
      0.3666666858503783 0.0 0.3666666858503783 1.0 
      0.3999999823582246 0.0 0.3999999823582246 1.0 
      0.43333334957674907 0.0 0.43333334957674907 1.0 
      0.46666664608459535 0.0 0.46666664608459535 1.0 
      0.5000000133031199 0.0 0.5000000133031199 1.0 
      0.5249999856840046 0.04999994476176949 0.5249999856840046 1.0 
      0.5500000287755675 0.10000003094489522 0.5500000287755675 1.0 
      0.5750000011564522 0.1499999757066647 0.5750000011564522 1.0 
      0.6000000442480151 0.20000006188979044 0.6000000442480151 1.0 
      0.6250000166288999 0.25000000665155997 0.6250000166288999 1.0 
      0.5882353430439895 0.23529416550186705 0.5882353430439895 1.0 
      0.551470528037723 0.22058818293081794 0.551470528037723 1.0 
      0.5147058544528128 0.2058823417811251 0.5147058544528128 1.0 
      0.47794118086790244 0.19117650063143224 0.47794118086790244 1.0 
      0.44117643657231403 0.1764705180603831 0.44117643657231403 1.0 
      0.4044117629874037 0.16176467691069024 0.4044117629874037 1.0 
      0.3676470894024934 0.14705883576099738 0.3676470894024934 1.0 
      0.330882345106905 0.1323529946113045 0.330882345106905 1.0 
      0.2941176008113166 0.1176470120402554 0.2941176008113166 1.0 
      0.2573529272264064 0.10294117089056255 0.2573529272264064 1.0 
      0.22058825364149606 0.08823532974086967 0.22058825364149606 1.0 
      0.18382350934590766 0.07352934716982058 0.18382350934590766 1.0 
      0.14705883576099738 0.0588235060201277 0.14705883576099738 1.0 
      0.11029409146540897 0.044117664870434836 0.11029409146540897 1.0 
      0.0735294178804987 0.029411823720741973 0.0735294178804987 1.0 
      0.036764673584910285 0.014705841149692865 0.036764673584910285 1.0 
      0.0 0.0 0.0 1.0 
   } 
   MaxAngularMomentum = { 
      Si = d 
   } 
   MaxSCCIterations = 1 
   OrbitalResolvedSCC = No 
   PolynomialRepulsive = SetForAll {Yes} 
   ReadInitialCharges = Yes 
   SCC = Yes 
   SCCTolerance = 1000000.0 
   SlaterKosterFiles = Type2FileNames{ 
      Prefix = /home/inukai/tango/tests/1element/qe_fit_v2_Si/ 
      Separator = "-" 
      Suffix = ".skf" 
      } 
   } 
Options { 
   WriteResultsTag = Yes 
} 
ParserOptions { 
   IgnoreUnprocessedNodes = Yes  
} 
