&CONTROL
   calculation      = 'bands'
   verbosity        = 'high'
   restart_mode     = 'restart'
   tstress          = .true.
   tprnfor          = .true.
   disk_io          = 'low'
/
&SYSTEM
   ecutwfc          = 40.0
   ecutrho          = 200.0
   occupations      = 'smearing'
   degauss          = 0.001
   smearing         = 'gaussian'
   input_dft        = 'PBE'
   ntyp             = 1
   nat              = 1
   ibrav            = 0
/
&ELECTRONS
   electron_maxstep = 250
   scf_must_converge = .false.
   conv_thr         = 1e-07
   mixing_beta      = 0.1
/
&IONS
/
&CELL
/

ATOMIC_SPECIES
Cu 63.546 cu_pbe_v1.2.uspp.F.UPF

K_POINTS crystal_b
50
0.50000000000000 0.25000000000000 0.75000000000000 0
0.50000000000000 0.27777777777778 0.72222222222222 0
0.50000000000000 0.30555555555556 0.69444444444444 0
0.50000000000000 0.33333333333333 0.66666666666667 0
0.50000000000000 0.36111111111111 0.63888888888889 0
0.50000000000000 0.38888888888889 0.61111111111111 0
0.50000000000000 0.41666666666667 0.58333333333333 0
0.50000000000000 0.44444444444444 0.55555555555556 0
0.50000000000000 0.47222222222222 0.52777777777778 0
0.50000000000000 0.50000000000000 0.50000000000000 0
0.45833333333333 0.45833333333333 0.45833333333333 0
0.41666666666667 0.41666666666667 0.41666666666667 0
0.37500000000000 0.37500000000000 0.37500000000000 0
0.33333333333333 0.33333333333333 0.33333333333333 0
0.29166666666667 0.29166666666667 0.29166666666667 0
0.25000000000000 0.25000000000000 0.25000000000000 0
0.20833333333333 0.20833333333333 0.20833333333333 0
0.16666666666667 0.16666666666667 0.16666666666667 0
0.12500000000000 0.12500000000000 0.12500000000000 0
0.08333333333333 0.08333333333333 0.08333333333333 0
0.04166666666667 0.04166666666667 0.04166666666667 0
0.00000000000000 0.00000000000000 0.00000000000000 0
0.03333333333333 0.00000000000000 0.03333333333333 0
0.06666666666667 0.00000000000000 0.06666666666667 0
0.10000000000000 0.00000000000000 0.10000000000000 0
0.13333333333333 0.00000000000000 0.13333333333333 0
0.16666666666667 0.00000000000000 0.16666666666667 0
0.20000000000000 0.00000000000000 0.20000000000000 0
0.23333333333333 0.00000000000000 0.23333333333333 0
0.26666666666667 0.00000000000000 0.26666666666667 0
0.30000000000000 0.00000000000000 0.30000000000000 0
0.33333333333333 0.00000000000000 0.33333333333333 0
0.36666666666667 0.00000000000000 0.36666666666667 0
0.40000000000000 0.00000000000000 0.40000000000000 0
0.43333333333333 0.00000000000000 0.43333333333333 0
0.46666666666667 0.00000000000000 0.46666666666667 0
0.50000000000000 0.00000000000000 0.50000000000000 0
0.50000000000000 0.03571428571429 0.53571428571429 0
0.50000000000000 0.07142857142857 0.57142857142857 0
0.50000000000000 0.10714285714286 0.60714285714286 0
0.50000000000000 0.14285714285714 0.64285714285714 0
0.50000000000000 0.17857142857143 0.67857142857143 0
0.50000000000000 0.21428571428571 0.71428571428571 0
0.50000000000000 0.25000000000000 0.75000000000000 0
0.47916666666667 0.27083333333333 0.75000000000000 0
0.45833333333333 0.29166666666667 0.75000000000000 0
0.43750000000000 0.31250000000000 0.75000000000000 0
0.41666666666667 0.33333333333333 0.75000000000000 0
0.39583333333333 0.35416666666667 0.75000000000000 0
0.37500000000000 0.37500000000000 0.75000000000000 0

CELL_PARAMETERS angstrom
0.00000000000000 1.80750000000000 1.80750000000000
1.80750000000000 0.00000000000000 1.80750000000000
1.80750000000000 1.80750000000000 0.00000000000000

ATOMIC_POSITIONS angstrom
Cu 0.0000000000 0.0000000000 0.0000000000 

