Geometry = GenFormat {
1  S
Cr
1      1      0.000000000000000      0.000000000000000      0.000000000000000
0.000000000000000      0.000000000000000      0.000000000000000
-1.455000000000000      1.455000000000000      1.455000000000000
1.455000000000000     -1.455000000000000      1.455000000000000
1.455000000000000      1.455000000000000     -1.455000000000000
}
Hamiltonian = DFTB {
  KPointsAndWeights = {
0.0 0.0 0.0 1.0
0.035714310301801055 -0.035714310301801055 0.035714310301801055 1.0
0.0714285628685752 -0.0714285628685752 0.0714285628685752 1.0
0.10714287317037625 -0.10714287317037625 0.10714287317037625 1.0
0.1428571257371504 -0.1428571257371504 0.1428571257371504 1.0
0.17857143603895145 -0.17857143603895145 0.17857143603895145 1.0
0.21428568860572558 -0.21428568860572558 0.21428568860572558 1.0
0.2499999989075266 -0.2499999989075266 0.2499999989075266 1.0
0.2857143092093277 -0.2857143092093277 0.2857143092093277 1.0
0.32142856177610185 -0.32142856177610185 0.32142856177610185 1.0
0.3571428720779029 -0.3571428720779029 0.3571428720779029 1.0
0.3928571246446771 -0.3928571246446771 0.3928571246446771 1.0
0.4285714349464781 -0.4285714349464781 0.4285714349464781 1.0
0.4642856875132522 -0.4642856875132522 0.4642856875132522 1.0
0.4999999978150532 -0.4999999978150532 0.4999999978150532 1.0
0.4499999633925318 -0.4499999633925318 0.4999999978150533 1.0
0.40000004444006415 -0.40000004444006415 0.4999999978150533 1.0
0.3500000100175427 -0.3500000100175427 0.4999999978150534 1.0
0.2999999755950212 -0.2999999755950212 0.4999999978150533 1.0
0.2499999989075266 -0.2499999989075266 0.5000000555500802 1.0
0.2000000222200321 -0.2000000222200321 0.4999999978150534 1.0
0.14999998779751064 -0.14999998779751064 0.4999999978150534 1.0
0.09999995337498914 -0.09999995337498914 0.4999999978150534 1.0
0.05000003442252148 -0.05000003442252148 0.4999999978150533 1.0
-1.181726522106744e-17 1.181726522106744e-17 0.4999999978150532 1.0
-1.3282227689627678e-17 1.3282227689627678e-17 0.4545454420618617 1.0
-1.4747190158187917e-17 1.4747190158187917e-17 0.4090908863086702 1.0
9.497319392852143e-18 -9.497319392852143e-18 0.36363633055547867 1.0
-1.5976675168135406e-18 1.5976675168135406e-18 0.31818177480228704 1.0
-3.062629985373779e-18 3.062629985373779e-18 0.2727272190490955 1.0
5.690401425964507e-18 -5.690401425964507e-18 0.2272727787659578 1.0
-5.895732631484541e-19 5.895732631484541e-19 0.18181822301276623 1.0
1.9653261629150205e-18 -1.9653261629150205e-18 0.1363636672595747 1.0
-2.9478663157422705e-19 2.9478663157422705e-19 0.09090911150638312 1.0
-1.4739331578711353e-19 1.4739331578711353e-19 0.04545455575319156 1.0
0.0 0.0 0.0 1.0
0.017857155150900528 0.017857155150900528 0.017857155150900528 1.0
0.035714310301801055 0.035714310301801055 0.035714310301801055 1.0
0.05357140771767466 0.05357140771767467 0.05357140771767466 1.0
0.0714285628685752 0.0714285628685752 0.0714285628685752 1.0
0.08928571801947573 0.08928571801947571 0.08928571801947573 1.0
0.10714287317037625 0.10714287317037625 0.10714287317037625 1.0
0.12500002832127677 0.1250000283212768 0.12500002832127677 1.0
0.1428571257371504 0.1428571257371504 0.1428571257371504 1.0
0.16071428088805093 0.1607142808880509 0.16071428088805093 1.0
0.17857143603895145 0.17857143603895143 0.17857143603895145 1.0
0.19642859118985195 0.19642859118985198 0.19642859118985195 1.0
0.21428568860572558 0.21428568860572555 0.21428568860572558 1.0
0.2321428437566261 0.23214284375662614 0.2321428437566261 1.0
0.2499999989075266 0.24999999890752664 0.2499999989075266 1.0
  }
  MaxAngularMomentum = {
    Cr = d
  }
  MaxSCCIterations = 1
  OrbitalResolvedSCC = No
  PolynomialRepulsive = SetForAll {
Yes
  }
  ReadInitialCharges = Yes
  SCC = Yes
  SCCTolerance = 1000000.0
  SlaterKosterFiles = Type2FileNames {
    Prefix = /home/inukai/tango/tests/1element/qe_fit_v2_Cr/
    Separator = "-"
    Suffix = ".skf"
    LowerCaseTypeName = No
  }
  OldSKInterpolation = No
  Mixer = Broyden {
    MixingParameter = 0.20000000000000001
    CachedIterations = -1
    InverseJacobiWeight = 1.0000000000000000E-002
    MinimalWeight = 1.0000000000000000
    MaximalWeight = 100000.00000000000
    WeightFactor = 1.0000000000000000E-002
  }
  DampXH = No
  EwaldParameter = 0.0000000000000000
  SpinPolarisation = {}
  ElectricField = {}
  Eigensolver = RelativelyRobust {}
  Filling = Fermi {
    Temperature = 0.0000000000000000
    IndependentKFilling = No
  }
  Charge = 0.0000000000000000
  Dispersion = {}
  ThirdOrder = No
  ThirdOrderFull = No
  Differentiation = FiniteDiff {
    Delta = 1.2207031250000000E-004
  }
  ForceEvaluation = "Traditional"
}
Options = {
  WriteResultsTag = Yes
  WriteAutotestTag = No
  WriteDetailedXML = No
  WriteDetailedOut = Yes
  RestartFrequency = 20
  RandomSeed = 0
  WriteHS = No
  WriteRealHS = No
  MinimiseMemoryUsage = No
  ShowFoldedCoords = No
}
ParserOptions = {
  IgnoreUnprocessedNodes = Yes
  ParserVersion = 5
  WriteHSDInput = Yes
  WriteXMLInput = No
  StopAfterParsing = No
}
Driver = {}
ExcitedState = {}
Analysis = {
  ProjectStates = {}
  MullikenAnalysis = Yes
  AtomResolvedEnergies = No
  WriteEigenvectors = No
  WriteBandOut = Yes
  CalculateForces = No
}
