Geometry = GenFormat { 
    <<< "geo_end.gen" 
} 
 
Hamiltonian = DFTB{ 
   KPointsAndWeights = { 
      0.0 0.0 0.0 1.0 
      0.08333333333333333 0.0 0.0 1.0 
      0.16666666666666666 0.0 0.0 1.0 
      0.25 0.0 0.0 1.0 
      0.3333333333333333 0.0 0.0 1.0 
      0.41666666666666663 0.0 0.0 1.0 
      0.5 0.0 0.0 1.0 
      0.4444444444444444 0.1111111111111111 0.0 1.0 
      0.3888888888888889 0.2222222222222222 0.0 1.0 
      0.3333333333333333 0.3333333333333333 0.0 1.0 
      0.2857142857142857 0.2857142857142857 0.0 1.0 
      0.23809523809523808 0.23809523809523808 0.0 1.0 
      0.19047619047619047 0.19047619047619047 0.0 1.0 
      0.14285714285714285 0.14285714285714285 0.0 1.0 
      0.09523809523809526 0.09523809523809526 0.0 1.0 
      0.047619047619047616 0.047619047619047616 0.0 1.0 
      0.0 0.0 0.0 1.0 
      0.0 0.0 0.125 1.0 
      0.0 0.0 0.25 1.0 
      0.0 0.0 0.375 1.0 
      0.0 0.0 0.5 1.0 
      0.08333333333333333 0.0 0.5 1.0 
      0.16666666666666666 0.0 0.5 1.0 
      0.25 0.0 0.5 1.0 
      0.3333333333333333 0.0 0.5 1.0 
      0.41666666666666663 0.0 0.5 1.0 
      0.5 0.0 0.5 1.0 
      0.4444444444444444 0.1111111111111111 0.5 1.0 
      0.3888888888888889 0.2222222222222222 0.5 1.0 
      0.3333333333333333 0.3333333333333333 0.5 1.0 
      0.2962962962962963 0.2962962962962963 0.5 1.0 
      0.25925925925925924 0.25925925925925924 0.5 1.0 
      0.2222222222222222 0.2222222222222222 0.5 1.0 
      0.18518518518518517 0.18518518518518517 0.5 1.0 
      0.14814814814814814 0.14814814814814814 0.5 1.0 
      0.1111111111111111 0.1111111111111111 0.5 1.0 
      0.07407407407407413 0.07407407407407413 0.5 1.0 
      0.037037037037037035 0.037037037037037035 0.5 1.0 
      0.0 0.0 0.5 1.0 
      0.5 0.0 0.5 1.0 
      0.5 0.0 0.4 1.0 
      0.5 0.0 0.3 1.0 
      0.5 0.0 0.19999999999999996 1.0 
      0.5 0.0 0.09999999999999998 1.0 
      0.5 0.0 0.0 1.0 
      0.3333333333333333 0.3333333333333333 0.0 1.0 
      0.3333333333333333 0.3333333333333333 0.125 1.0 
      0.3333333333333333 0.3333333333333333 0.25 1.0 
      0.3333333333333333 0.3333333333333333 0.375 1.0 
      0.3333333333333333 0.3333333333333333 0.5 1.0 
   } 
   MaxAngularMomentum = { 
      H = s 
   } 
   MaxSCCIterations = 1 
   OrbitalResolvedSCC = No 
   PolynomialRepulsive = SetForAll {Yes} 
   ReadInitialCharges = Yes 
   SCC = Yes 
   SCCTolerance = 1000000.0 
   SlaterKosterFiles = Type2FileNames{ 
      Prefix = /home/inukai/tango/tests/1element/gpaw_fit_v3_H/ 
      Separator = "-" 
      Suffix = ".skf" 
      } 
   } 
Options { 
   WriteResultsTag = Yes 
} 
ParserOptions { 
   IgnoreUnprocessedNodes = Yes  
} 
