Geometry = GenFormat {
4  S
H
1      1     -0.000000020037944      2.313782599520296      3.376970838640000
2      1      2.003794520037946      1.156891282406779      0.875436838640001
3      1      2.003794520037946      1.156891282406779      1.626097161360000
4      1     -0.000000020037944      2.313782599520296      4.127631161360000
0.000000000000000      0.000000000000000      0.000000000000000
4.007589000000000      0.000000000000000      0.000000000000000
-2.003794499999999      3.470673881927075      0.000000000000000
0.000000000000000      0.000000000000000      5.003068000000000
}
Hamiltonian = DFTB {
  KPointsAndWeights = {
0.0 0.0 0.0 1.0
0.08333333333333333 0.0 0.0 1.0
0.16666666666666666 0.0 0.0 1.0
0.25 0.0 0.0 1.0
0.3333333333333333 0.0 0.0 1.0
0.41666666666666663 0.0 0.0 1.0
0.5 0.0 0.0 1.0
0.4444444444444444 0.1111111111111111 0.0 1.0
0.3888888888888889 0.2222222222222222 0.0 1.0
0.3333333333333333 0.3333333333333333 0.0 1.0
0.2857142857142857 0.2857142857142857 0.0 1.0
0.23809523809523808 0.23809523809523808 0.0 1.0
0.19047619047619047 0.19047619047619047 0.0 1.0
0.14285714285714285 0.14285714285714285 0.0 1.0
0.09523809523809526 0.09523809523809526 0.0 1.0
0.047619047619047616 0.047619047619047616 0.0 1.0
0.0 0.0 0.0 1.0
0.0 0.0 0.125 1.0
0.0 0.0 0.25 1.0
0.0 0.0 0.375 1.0
0.0 0.0 0.5 1.0
0.08333333333333333 0.0 0.5 1.0
0.16666666666666666 0.0 0.5 1.0
0.25 0.0 0.5 1.0
0.3333333333333333 0.0 0.5 1.0
0.41666666666666663 0.0 0.5 1.0
0.5 0.0 0.5 1.0
0.4444444444444444 0.1111111111111111 0.5 1.0
0.3888888888888889 0.2222222222222222 0.5 1.0
0.3333333333333333 0.3333333333333333 0.5 1.0
0.2962962962962963 0.2962962962962963 0.5 1.0
0.25925925925925924 0.25925925925925924 0.5 1.0
0.2222222222222222 0.2222222222222222 0.5 1.0
0.18518518518518517 0.18518518518518517 0.5 1.0
0.14814814814814814 0.14814814814814814 0.5 1.0
0.1111111111111111 0.1111111111111111 0.5 1.0
0.07407407407407413 0.07407407407407413 0.5 1.0
0.037037037037037035 0.037037037037037035 0.5 1.0
0.0 0.0 0.5 1.0
0.5 0.0 0.5 1.0
0.5 0.0 0.4 1.0
0.5 0.0 0.3 1.0
0.5 0.0 0.19999999999999996 1.0
0.5 0.0 0.09999999999999998 1.0
0.5 0.0 0.0 1.0
0.3333333333333333 0.3333333333333333 0.0 1.0
0.3333333333333333 0.3333333333333333 0.125 1.0
0.3333333333333333 0.3333333333333333 0.25 1.0
0.3333333333333333 0.3333333333333333 0.375 1.0
0.3333333333333333 0.3333333333333333 0.5 1.0
  }
  MaxAngularMomentum = {
    H = s
  }
  MaxSCCIterations = 1
  OrbitalResolvedSCC = No
  PolynomialRepulsive = SetForAll {
Yes
  }
  ReadInitialCharges = Yes
  SCC = Yes
  SCCTolerance = 1000000.0
  SlaterKosterFiles = Type2FileNames {
    Prefix = /home/inukai/tango/tests/1element/gpaw_fit_v3_H/
    Separator = "-"
    Suffix = ".skf"
    LowerCaseTypeName = No
  }
  OldSKInterpolation = No
  Mixer = Broyden {
    MixingParameter = 0.20000000000000001
    CachedIterations = -1
    InverseJacobiWeight = 1.0000000000000000E-002
    MinimalWeight = 1.0000000000000000
    MaximalWeight = 100000.00000000000
    WeightFactor = 1.0000000000000000E-002
  }
  DampXH = No
  EwaldParameter = 0.0000000000000000
  SpinPolarisation = {}
  ElectricField = {}
  Eigensolver = RelativelyRobust {}
  Filling = Fermi {
    Temperature = 0.0000000000000000
    IndependentKFilling = No
  }
  Charge = 0.0000000000000000
  Dispersion = {}
  ThirdOrder = No
  ThirdOrderFull = No
  Differentiation = FiniteDiff {
    Delta = 1.2207031250000000E-004
  }
  ForceEvaluation = "Traditional"
}
Options = {
  WriteResultsTag = Yes
  WriteAutotestTag = No
  WriteDetailedXML = No
  WriteDetailedOut = Yes
  RestartFrequency = 20
  RandomSeed = 0
  WriteHS = No
  WriteRealHS = No
  MinimiseMemoryUsage = No
  ShowFoldedCoords = No
}
ParserOptions = {
  IgnoreUnprocessedNodes = Yes
  ParserVersion = 5
  WriteHSDInput = Yes
  WriteXMLInput = No
  StopAfterParsing = No
}
Driver = {}
ExcitedState = {}
Analysis = {
  ProjectStates = {}
  MullikenAnalysis = Yes
  AtomResolvedEnergies = No
  WriteEigenvectors = No
  WriteBandOut = Yes
  CalculateForces = No
}
