Geometry = GenFormat { 
    <<< "geo_end.gen" 
} 
 
Hamiltonian = DFTB{ 
   KPointsAndWeights = { 
      0.0 0.0 0.0 1.0 
      -0.125 0.0 0.0 1.0 
      -0.25 0.0 0.0 1.0 
      -0.375 0.0 0.0 1.0 
      -0.5 0.0 0.0 1.0 
      -0.5 0.0 -0.125 1.0 
      -0.5 0.0 -0.25 1.0 
      -0.5 0.0 -0.375 1.0 
      -0.5 0.0 -0.5 1.0 
      -0.375 0.0 -0.5 1.0 
      -0.25 0.0 -0.5 1.0 
      -0.125 0.0 -0.5 1.0 
      0.0 0.0 -0.5 1.0 
      0.0 0.0 -0.375 1.0 
      0.0 0.0 -0.25 1.0 
      0.0 0.0 -0.125 1.0 
      0.0 0.0 0.0 1.0 
      0.0 -0.25 0.0 1.0 
      0.0 -0.5 0.0 1.0 
      -0.1 -0.5 0.0 1.0 
      -0.2 -0.5 0.0 1.0 
      -0.30000000000000004 -0.5 0.0 1.0 
      -0.4 -0.5 0.0 1.0 
      -0.5 -0.5 0.0 1.0 
      -0.5 -0.5 -0.1 1.0 
      -0.5 -0.5 -0.2 1.0 
      -0.5 -0.5 -0.30000000000000004 1.0 
      -0.5 -0.5 -0.4 1.0 
      -0.5 -0.5 -0.5 1.0 
      -0.4 -0.5 -0.5 1.0 
      -0.3 -0.5 -0.5 1.0 
      -0.19999999999999996 -0.5 -0.5 1.0 
      -0.09999999999999998 -0.5 -0.5 1.0 
      0.0 -0.5 -0.5 1.0 
      0.0 -0.5 -0.4 1.0 
      0.0 -0.5 -0.3 1.0 
      0.0 -0.5 -0.19999999999999996 1.0 
      0.0 -0.5 -0.09999999999999998 1.0 
      0.0 -0.5 0.0 1.0 
      0.0 0.0 -0.5 1.0 
      0.0 -0.16666666666666666 -0.5 1.0 
      0.0 -0.3333333333333333 -0.5 1.0 
      0.0 -0.5 -0.5 1.0 
      -0.5 -0.5 0.0 1.0 
      -0.5 -0.25 0.0 1.0 
      -0.5 0.0 0.0 1.0 
      -0.5 0.0 -0.5 1.0 
      -0.5 -0.16666666666666666 -0.5 1.0 
      -0.5 -0.3333333333333333 -0.5 1.0 
      -0.5 -0.5 -0.5 1.0 
   } 
   MaxAngularMomentum = { 
      Ga = d 
   } 
   MaxSCCIterations = 1 
   OrbitalResolvedSCC = No 
   PolynomialRepulsive = SetForAll {Yes} 
   ReadInitialCharges = Yes 
   SCC = Yes 
   SCCTolerance = 1000000.0 
   SlaterKosterFiles = Type2FileNames{ 
      Prefix = /home/inukai/tango/tests/1element/gpaw_fit_v3_Ga/ 
      Separator = "-" 
      Suffix = ".skf" 
      } 
   } 
Options { 
   WriteResultsTag = Yes 
} 
ParserOptions { 
   IgnoreUnprocessedNodes = Yes  
} 
