Geometry = GenFormat {
1  S
Na
1      1      0.000000000000000      0.000000000000000      0.000000000000000
0.000000000000000      0.000000000000000      0.000000000000000
-2.145500000000000      2.145500000000000      2.145500000000000
2.145500000000000     -2.145500000000000      2.145500000000000
2.145500000000000      2.145500000000000     -2.145500000000000
}
Hamiltonian = DFTB {
  KPointsAndWeights = {
0.0 0.0 0.0 1.0
0.03571431030180106 -0.03571431030180106 0.03571431030180106 1.0
0.07142856286857521 -0.07142856286857521 0.07142856286857521 1.0
0.10714287317037625 -0.10714287317037625 0.10714287317037625 1.0
0.14285712573715043 -0.14285712573715043 0.14285712573715043 1.0
0.17857143603895145 -0.17857143603895145 0.17857143603895145 1.0
0.21428568860572564 -0.21428568860572564 0.21428568860572564 1.0
0.24999999890752664 -0.24999999890752664 0.24999999890752664 1.0
0.2857143092093277 -0.2857143092093277 0.2857143092093277 1.0
0.32142856177610185 -0.32142856177610185 0.32142856177610185 1.0
0.3571428720779029 -0.3571428720779029 0.3571428720779029 1.0
0.3928571246446771 -0.3928571246446771 0.3928571246446771 1.0
0.42857143494647815 -0.42857143494647815 0.42857143494647815 1.0
0.4642856875132522 -0.4642856875132522 0.4642856875132522 1.0
0.4999999978150533 -0.4999999978150533 0.4999999978150533 1.0
0.4499999633925319 -0.4499999633925319 0.4999999978150534 1.0
0.40000004444006426 -0.40000004444006426 0.49999999781505344 1.0
0.3500000100175427 -0.3500000100175427 0.4999999978150534 1.0
0.2999999755950212 -0.2999999755950212 0.4999999978150533 1.0
0.2499999989075267 -0.2499999989075267 0.5000000555500803 1.0
0.2000000222200321 -0.2000000222200321 0.4999999978150534 1.0
0.14999998779751061 -0.14999998779751061 0.4999999978150534 1.0
0.09999995337498915 -0.09999995337498915 0.4999999978150534 1.0
0.05000003442252152 -0.05000003442252152 0.4999999978150534 1.0
-1.1823896557182888e-17 1.1823896557182888e-17 0.4999999978150533 1.0
-2.8099822919429284e-18 2.8099822919429284e-18 0.45454544206186176 1.0
6.203931973297031e-18 -6.203931973297031e-18 0.40909088630867024 1.0
-1.7550717618705737e-17 1.7550717618705737e-17 0.36363633055547856 1.0
7.847478575155586e-18 -7.847478575155586e-18 0.3181817748022871 1.0
4.771109117741811e-19 -4.771109117741811e-19 0.2727272190490955 1.0
4.0832744596642945e-18 -4.0832744596642945e-18 0.22727277876595783 1.0
-3.2870932037171095e-18 3.2870932037171095e-18 0.18181822301276623 1.0
-2.4653199027878322e-18 2.4653199027878322e-18 0.1363636672595747 1.0
-1.6435466018585548e-18 1.6435466018585548e-18 0.09090911150638312 1.0
-8.217733009292774e-19 8.217733009292774e-19 0.04545455575319156 1.0
0.0 0.0 0.0 1.0
0.01785715515090053 0.01785715515090053 0.01785715515090053 1.0
0.03571431030180106 0.03571431030180106 0.03571431030180106 1.0
0.05357140771767467 0.05357140771767467 0.05357140771767467 1.0
0.07142856286857521 0.0714285628685752 0.07142856286857521 1.0
0.08928571801947573 0.08928571801947574 0.08928571801947573 1.0
0.10714287317037625 0.10714287317037625 0.10714287317037625 1.0
0.1250000283212768 0.1250000283212768 0.1250000283212768 1.0
0.14285712573715043 0.1428571257371504 0.14285712573715043 1.0
0.16071428088805093 0.1607142808880509 0.16071428088805093 1.0
0.17857143603895145 0.17857143603895148 0.17857143603895145 1.0
0.19642859118985195 0.19642859118985198 0.19642859118985195 1.0
0.21428568860572564 0.21428568860572558 0.21428568860572564 1.0
0.2321428437566261 0.23214284375662614 0.2321428437566261 1.0
0.24999999890752664 0.2499999989075267 0.24999999890752664 1.0
  }
  MaxAngularMomentum = {
    Na = p
  }
  MaxSCCIterations = 1
  OrbitalResolvedSCC = No
  PolynomialRepulsive = SetForAll {
Yes
  }
  ReadInitialCharges = Yes
  SCC = Yes
  SCCTolerance = 1000000.0
  SlaterKosterFiles = Type2FileNames {
    Prefix = /home/inukai/tango/tests/1element/qe_fit_v2_Na/
    Separator = "-"
    Suffix = ".skf"
    LowerCaseTypeName = No
  }
  OldSKInterpolation = No
  Mixer = Broyden {
    MixingParameter = 0.20000000000000001
    CachedIterations = -1
    InverseJacobiWeight = 1.0000000000000000E-002
    MinimalWeight = 1.0000000000000000
    MaximalWeight = 100000.00000000000
    WeightFactor = 1.0000000000000000E-002
  }
  DampXH = No
  EwaldParameter = 0.0000000000000000
  SpinPolarisation = {}
  ElectricField = {}
  Eigensolver = RelativelyRobust {}
  Filling = Fermi {
    Temperature = 0.0000000000000000
    IndependentKFilling = No
  }
  Charge = 0.0000000000000000
  Dispersion = {}
  ThirdOrder = No
  ThirdOrderFull = No
  Differentiation = FiniteDiff {
    Delta = 1.2207031250000000E-004
  }
  ForceEvaluation = "Traditional"
}
Options = {
  WriteResultsTag = Yes
  WriteAutotestTag = No
  WriteDetailedXML = No
  WriteDetailedOut = Yes
  RestartFrequency = 20
  RandomSeed = 0
  WriteHS = No
  WriteRealHS = No
  MinimiseMemoryUsage = No
  ShowFoldedCoords = No
}
ParserOptions = {
  IgnoreUnprocessedNodes = Yes
  ParserVersion = 5
  WriteHSDInput = Yes
  WriteXMLInput = No
  StopAfterParsing = No
}
Driver = {}
ExcitedState = {}
Analysis = {
  ProjectStates = {}
  MullikenAnalysis = Yes
  AtomResolvedEnergies = No
  WriteEigenvectors = No
  WriteBandOut = Yes
  CalculateForces = No
}
