&CONTROL
   calculation      = 'bands'
   verbosity        = 'high'
   restart_mode     = 'restart'
   tstress          = .true.
   tprnfor          = .true.
   disk_io          = 'low'
/
&SYSTEM
   ecutwfc          = 40.0
   ecutrho          = 200.0
   occupations      = 'smearing'
   degauss          = 0.001
   smearing         = 'gaussian'
   input_dft        = 'PBE'
   ntyp             = 1
   nat              = 8
   ibrav            = 0
/
&ELECTRONS
   electron_maxstep = 250
   scf_must_converge = .false.
   conv_thr         = 1e-07
   mixing_beta      = 0.1
/
&IONS
/
&CELL
/

ATOMIC_SPECIES
N 14.007 n_pbe_v1.2.uspp.F.UPF

K_POINTS crystal_b
50
0.00000000000000 0.00000000000000 0.00000000000000 0
0.00000000000000 0.08333333333333 0.00000000000000 0
0.00000000000000 0.16666666666667 0.00000000000000 0
0.00000000000000 0.25000000000000 0.00000000000000 0
0.00000000000000 0.33333333333333 0.00000000000000 0
0.00000000000000 0.41666666666667 0.00000000000000 0
0.00000000000000 0.50000000000000 0.00000000000000 0
0.08333333333333 0.50000000000000 0.00000000000000 0
0.16666666666667 0.50000000000000 0.00000000000000 0
0.25000000000000 0.50000000000000 0.00000000000000 0
0.33333333333333 0.50000000000000 0.00000000000000 0
0.41666666666667 0.50000000000000 0.00000000000000 0
0.50000000000000 0.50000000000000 0.00000000000000 0
0.44444444444444 0.44444444444444 0.00000000000000 0
0.38888888888889 0.38888888888889 0.00000000000000 0
0.33333333333333 0.33333333333333 0.00000000000000 0
0.27777777777778 0.27777777777778 0.00000000000000 0
0.22222222222222 0.22222222222222 0.00000000000000 0
0.16666666666667 0.16666666666667 0.00000000000000 0
0.11111111111111 0.11111111111111 0.00000000000000 0
0.05555555555556 0.05555555555556 0.00000000000000 0
0.00000000000000 0.00000000000000 0.00000000000000 0
0.04545454545455 0.04545454545455 0.04545454545455 0
0.09090909090909 0.09090909090909 0.09090909090909 0
0.13636363636364 0.13636363636364 0.13636363636364 0
0.18181818181818 0.18181818181818 0.18181818181818 0
0.22727272727273 0.22727272727273 0.22727272727273 0
0.27272727272727 0.27272727272727 0.27272727272727 0
0.31818181818182 0.31818181818182 0.31818181818182 0
0.36363636363636 0.36363636363636 0.36363636363636 0
0.40909090909091 0.40909090909091 0.40909090909091 0
0.45454545454545 0.45454545454545 0.45454545454545 0
0.50000000000000 0.50000000000000 0.50000000000000 0
0.45000000000000 0.50000000000000 0.45000000000000 0
0.40000000000000 0.50000000000000 0.40000000000000 0
0.35000000000000 0.50000000000000 0.35000000000000 0
0.30000000000000 0.50000000000000 0.30000000000000 0
0.25000000000000 0.50000000000000 0.25000000000000 0
0.20000000000000 0.50000000000000 0.20000000000000 0
0.15000000000000 0.50000000000000 0.15000000000000 0
0.10000000000000 0.50000000000000 0.10000000000000 0
0.05000000000000 0.50000000000000 0.05000000000000 0
0.00000000000000 0.50000000000000 0.00000000000000 0
0.50000000000000 0.50000000000000 0.00000000000000 0
0.50000000000000 0.50000000000000 0.08333333333333 0
0.50000000000000 0.50000000000000 0.16666666666667 0
0.50000000000000 0.50000000000000 0.25000000000000 0
0.50000000000000 0.50000000000000 0.33333333333333 0
0.50000000000000 0.50000000000000 0.41666666666667 0
0.50000000000000 0.50000000000000 0.50000000000000 0

CELL_PARAMETERS angstrom
6.19018800000000 0.00000000000000 0.00000000000000
0.00000000000000 6.19018800000000 0.00000000000000
0.00000000000000 0.00000000000000 6.19018800000000

ATOMIC_POSITIONS angstrom
N 3.4163028553 3.4163028553 3.4163028553 
N 5.8689791447 2.7738851447 0.3212088553 
N 2.7738851447 0.3212088553 5.8689791447 
N 0.3212088553 5.8689791447 2.7738851447 
N 2.7738851447 2.7738851447 2.7738851447 
N 0.3212088553 3.4163028553 5.8689791447 
N 3.4163028553 5.8689791447 0.3212088553 
N 5.8689791447 0.3212088553 3.4163028553 

