Geometry = GenFormat {
2  S
Sc
1      1      0.000000000000000      0.000000000000000      0.000000000000000
2      1     -0.000000000000000      1.910452040748472      2.636500000000000
0.000000000000000      0.000000000000000      0.000000000000000
3.309000000000000      0.000000000000000      0.000000000000000
-1.654500000000000      2.865678061122707      0.000000000000000
0.000000000000000      0.000000000000000      5.273000000000000
}
Hamiltonian = DFTB {
  KPointsAndWeights = {
0.0 0.0 0.0 1.0
0.0357143 2.569250000050396e-08 0.0 1.0
0.0714286 -3.521749999704233e-08 0.0 1.0
0.10714289999999999 -9.525000000192694e-09 0.0 1.0
0.1428571 -2.0434999991442605e-08 0.0 1.0
0.1785714 5.257500000989595e-09 0.0 1.0
0.21428569999999997 -5.565249999137615e-08 0.0 1.0
0.25 -2.9959999990109075e-08 0.0 1.0
0.2857143 -9.086999998552726e-08 0.0 1.0
0.3214286 -6.51774999988775e-08 0.0 1.0
0.3571429 -1.2608750001196545e-07 0.0 1.0
0.3928571 -5.0395000005003856e-08 0.0 1.0
0.42857139999999994 -1.113049999827523e-07 0.0 1.0
0.4642857 -8.561250001377228e-08 0.0 1.0
0.5 -1.465224999915207e-07 0.0 1.0
0.4791667 0.04166649598749997 0.0 1.0
0.4583333 0.08333318849749997 0.0 1.0
0.4375 0.1249998310075 0.0 1.0
0.4166667 0.1666664735175 0.0 1.0
0.3958333 0.20833316602750002 0.0 1.0
0.375 0.24999980853749995 0.0 1.0
0.3541667 0.2916664510475 0.0 1.0
0.3333333 0.33333314355749993 0.0 1.0
0.3148148 0.31481464168250006 0.0 1.0
0.2962963 0.29629605320499997 0.0 1.0
0.27777779999999996 0.27777755133 0.0 1.0
0.2592593 0.259259049455 0.0 1.0
0.2407407 0.24074059758 0.0 1.0
0.22222219999999998 0.22222209570500004 0.0 1.0
0.20370370000000002 0.20370359382999997 0.0 1.0
0.1851852 0.18518500535250002 0.0 1.0
0.1666667 0.1666665034775 0.0 1.0
0.1481481 0.14814805160249997 0.0 1.0
0.1296296 0.12962954972750002 0.0 1.0
0.11111109999999999 0.11111104785250002 0.0 1.0
0.0925926 0.09259254597750001 0.0 1.0
0.0740741 0.07407404410249999 0.0 1.0
0.0555556 0.05555545562500001 0.0 1.0
0.037037 0.03703700375 0.0 1.0
0.0185185 0.018518501875 0.0 1.0
0.0 0.0 0.0 1.0
0.0 0.0 0.05555550033230001 1.0
0.0 0.0 0.11111116001789999 1.0
0.0 0.0 0.16666666035020003 1.0
0.0 0.0 0.22222232003579998 1.0
0.0 0.0 0.2777778203681 1.0
0.0 0.0 0.33333332070040006 1.0
0.0 0.0 0.38888898038599995 1.0
0.0 0.0 0.4444444807183 1.0
0.0 0.0 0.5000001404039001 1.0
  }
  MaxAngularMomentum = {
    Sc = d
  }
  MaxSCCIterations = 1
  OrbitalResolvedSCC = No
  PolynomialRepulsive = SetForAll {
Yes
  }
  ReadInitialCharges = Yes
  SCC = Yes
  SCCTolerance = 1000000.0
  SlaterKosterFiles = Type2FileNames {
    Prefix = /home/inukai/tango/tests/1element/qe_fit_v2_Sc/
    Separator = "-"
    Suffix = ".skf"
    LowerCaseTypeName = No
  }
  OldSKInterpolation = No
  Mixer = Broyden {
    MixingParameter = 0.20000000000000001
    CachedIterations = -1
    InverseJacobiWeight = 1.0000000000000000E-002
    MinimalWeight = 1.0000000000000000
    MaximalWeight = 100000.00000000000
    WeightFactor = 1.0000000000000000E-002
  }
  DampXH = No
  EwaldParameter = 0.0000000000000000
  SpinPolarisation = {}
  ElectricField = {}
  Eigensolver = RelativelyRobust {}
  Filling = Fermi {
    Temperature = 0.0000000000000000
    IndependentKFilling = No
  }
  Charge = 0.0000000000000000
  Dispersion = {}
  ThirdOrder = No
  ThirdOrderFull = No
  Differentiation = FiniteDiff {
    Delta = 1.2207031250000000E-004
  }
  ForceEvaluation = "Traditional"
}
Options = {
  WriteResultsTag = Yes
  WriteAutotestTag = No
  WriteDetailedXML = No
  WriteDetailedOut = Yes
  RestartFrequency = 20
  RandomSeed = 0
  WriteHS = No
  WriteRealHS = No
  MinimiseMemoryUsage = No
  ShowFoldedCoords = No
}
ParserOptions = {
  IgnoreUnprocessedNodes = Yes
  ParserVersion = 5
  WriteHSDInput = Yes
  WriteXMLInput = No
  StopAfterParsing = No
}
Driver = {}
ExcitedState = {}
Analysis = {
  ProjectStates = {}
  MullikenAnalysis = Yes
  AtomResolvedEnergies = No
  WriteEigenvectors = No
  WriteBandOut = Yes
  CalculateForces = No
}
