Geometry = GenFormat { 
    <<< "geo_end.gen" 
} 
 
Hamiltonian = DFTB{ 
   KPointsAndWeights = { 
      0.0 0.0 0.0 1.0 
      0.03571431030180106 -0.03571431030180106 0.03571431030180106 1.0 
      0.07142856286857521 -0.07142856286857521 0.07142856286857521 1.0 
      0.10714287317037625 -0.10714287317037625 0.10714287317037625 1.0 
      0.14285712573715043 -0.14285712573715043 0.14285712573715043 1.0 
      0.17857143603895145 -0.17857143603895145 0.17857143603895145 1.0 
      0.21428568860572558 -0.21428568860572558 0.21428568860572558 1.0 
      0.24999999890752664 -0.24999999890752664 0.24999999890752664 1.0 
      0.2857143092093277 -0.2857143092093277 0.2857143092093277 1.0 
      0.32142856177610185 -0.32142856177610185 0.32142856177610185 1.0 
      0.3571428720779029 -0.3571428720779029 0.3571428720779029 1.0 
      0.3928571246446771 -0.3928571246446771 0.3928571246446771 1.0 
      0.42857143494647815 -0.42857143494647815 0.42857143494647815 1.0 
      0.4642856875132523 -0.4642856875132523 0.4642856875132523 1.0 
      0.4999999978150533 -0.4999999978150533 0.4999999978150533 1.0 
      0.4499999633925319 -0.4499999633925319 0.4999999978150534 1.0 
      0.4000000444400642 -0.4000000444400642 0.4999999978150534 1.0 
      0.3500000100175427 -0.3500000100175427 0.4999999978150534 1.0 
      0.2999999755950212 -0.2999999755950212 0.4999999978150533 1.0 
      0.2499999989075267 -0.2499999989075267 0.5000000555500803 1.0 
      0.2000000222200321 -0.2000000222200321 0.4999999978150534 1.0 
      0.14999998779751061 -0.14999998779751061 0.4999999978150534 1.0 
      0.09999995337498915 -0.09999995337498915 0.49999999781505344 1.0 
      0.05000003442252148 -0.05000003442252148 0.4999999978150534 1.0 
      8.730539208032131e-18 -8.730539208032131e-18 0.4999999978150533 1.0 
      1.4292955114356125e-17 -1.4292955114356125e-17 0.45454544206186176 1.0 
      -1.548412544002562e-17 1.548412544002562e-17 0.4090908863086702 1.0 
      1.2147795752060097e-17 -1.2147795752060097e-17 0.36363633055547867 1.0 
      4.0463428031219795e-20 -4.0463428031219795e-20 0.3181817748022871 1.0 
      5.602879334355214e-18 -5.602879334355214e-18 0.2727272190490956 1.0 
      -5.67185423714079e-18 5.67185423714079e-18 0.2272727787659578 1.0 
      -6.744433918288805e-18 6.744433918288805e-18 0.18181822301276623 1.0 
      1.0178605157396163e-18 -1.0178605157396163e-18 0.1363636672595747 1.0 
      -3.3722169591444024e-18 3.3722169591444024e-18 0.09090911150638312 1.0 
      -1.6861084795722012e-18 1.6861084795722012e-18 0.04545455575319156 1.0 
      0.0 0.0 0.0 1.0 
      0.01785715515090053 0.01785715515090053 0.01785715515090053 1.0 
      0.03571431030180106 0.03571431030180106 0.03571431030180106 1.0 
      0.05357140771767467 0.05357140771767467 0.05357140771767467 1.0 
      0.07142856286857521 0.0714285628685752 0.07142856286857521 1.0 
      0.08928571801947573 0.08928571801947574 0.08928571801947573 1.0 
      0.10714287317037625 0.10714287317037627 0.10714287317037625 1.0 
      0.12500002832127677 0.1250000283212768 0.12500002832127677 1.0 
      0.14285712573715043 0.1428571257371504 0.14285712573715043 1.0 
      0.16071428088805093 0.1607142808880509 0.16071428088805093 1.0 
      0.17857143603895145 0.17857143603895148 0.17857143603895145 1.0 
      0.19642859118985198 0.19642859118985198 0.19642859118985198 1.0 
      0.21428568860572558 0.21428568860572555 0.21428568860572558 1.0 
      0.23214284375662614 0.23214284375662614 0.23214284375662614 1.0 
      0.24999999890752664 0.24999999890752664 0.24999999890752664 1.0 
   } 
   MaxAngularMomentum = { 
      O = p 
   } 
   MaxSCCIterations = 1 
   OrbitalResolvedSCC = No 
   PolynomialRepulsive = SetForAll {Yes} 
   ReadInitialCharges = Yes 
   SCC = Yes 
   SCCTolerance = 1000000.0 
   SlaterKosterFiles = Type2FileNames{ 
      Prefix = /home/inukai/tango/tests/1element/qe_fit_v2_O/ 
      Separator = "-" 
      Suffix = ".skf" 
      } 
   } 
Options { 
   WriteResultsTag = Yes 
} 
ParserOptions { 
   IgnoreUnprocessedNodes = Yes  
} 
