Geometry = GenFormat { 
    <<< "geo_end.gen" 
} 
 
Hamiltonian = DFTB{ 
   KPointsAndWeights = { 
      0.0 0.0 0.0 1.0 
      0.0833333 -2.2187499994500866e-08 0.0 1.0 
      0.1666667 -9.437499998818587e-08 0.0 1.0 
      0.25 -2.9959999980968895e-08 0.0 1.0 
      0.3333333 -5.214749998505448e-08 0.0 1.0 
      0.4166667 -1.2433499997065445e-07 0.0 1.0 
      0.5 -1.4652249997324036e-07 0.0 1.0 
      0.4444444 0.111110995705 0.0 1.0 
      0.3888889 0.22222200133000009 0.0 1.0 
      0.3333333 0.33333314355750004 0.0 1.0 
      0.29166670000000006 0.2916664585375 0.0 1.0 
      0.25 0.24999982351750008 0.0 1.0 
      0.20833330000000003 0.20833318849750004 0.0 1.0 
      0.1666667 0.16666650347750003 0.0 1.0 
      0.125 0.12499995506000001 0.0 1.0 
      0.0833333 0.08333332004000002 0.0 1.0 
      0.04166670000000001 0.041666635020000016 0.0 1.0 
      0.0 0.0 0.0 1.0 
      0.0 0.0 0.16666671877050002 1.0 
      0.0 0.0 0.33333343754100003 1.0 
      0.0 0.0 0.500000001306 1.0 
      0.0714286 -3.52174999937412e-08 0.500000001306 1.0 
      0.1428571 -2.0434999988298264e-08 0.500000001306 1.0 
      0.2142857 -5.565249998128962e-08 0.500000001306 1.0 
      0.2857143 -9.086999997578067e-08 0.500000001306 1.0 
      0.3571429 -1.2608749996727234e-07 0.500000001306 1.0 
      0.4285714 -1.1130499996257924e-07 0.500000001306 1.0 
      0.5 -1.4652249997324036e-07 0.500000001306 1.0 
      0.45833330000000005 0.08333318849750003 0.500000001306 1.0 
      0.4166667 0.16666647351750008 0.500000001306 1.0 
      0.375 0.2499998085375 0.500000001306 1.0 
      0.3333333 0.33333314355750004 0.500000001306 1.0 
      0.2962963 0.2962960532050001 0.500000001306 1.0 
      0.2592593 0.25925904945500006 0.500000001306 1.0 
      0.2222222 0.22222209570500004 0.500000001306 1.0 
      0.1851852 0.18518500535250002 0.500000001306 1.0 
      0.1481481 0.14814805160250005 0.500000001306 1.0 
      0.1111111 0.11111104785250002 0.500000001306 1.0 
      0.0740741 0.07407404410250001 0.500000001306 1.0 
      0.037037 0.037037003750000005 0.500000001306 1.0 
      0.0 0.0 0.500000001306 1.0 
      0.5 -1.4652249997324036e-07 0.500000001306 1.0 
      0.5 -1.4652249997324036e-07 0.33333343754100003 1.0 
      0.5 -1.4652249997324036e-07 0.16666671877050002 1.0 
      0.5 -1.4652249997324036e-07 0.0 1.0 
      0.3333333 0.33333314355750004 0.0 1.0 
      0.3333333 0.33333314355750004 0.1250000003265 1.0 
      0.3333333 0.33333314355750004 0.250000000653 1.0 
      0.3333333 0.33333314355750004 0.37500000097950004 1.0 
      0.3333333 0.33333314355750004 0.500000001306 1.0 
   } 
   MaxAngularMomentum = { 
      Y = d 
   } 
   MaxSCCIterations = 1 
   OrbitalResolvedSCC = No 
   PolynomialRepulsive = SetForAll {Yes} 
   ReadInitialCharges = Yes 
   SCC = Yes 
   SCCTolerance = 1000000.0 
   SlaterKosterFiles = Type2FileNames{ 
      Prefix = /home/inukai/tango/tests/1element/qe_fit_v3_Y/ 
      Separator = "-" 
      Suffix = ".skf" 
      } 
   } 
Options { 
   WriteResultsTag = Yes 
} 
ParserOptions { 
   IgnoreUnprocessedNodes = Yes  
} 
