Geometry = GenFormat {
2  S
Mg
1      1      0.000000000000000      0.000000000000000      0.000000000000000
2      1     -0.000000000000000      1.852717013829509      2.605500000000000
0.000000000000000      0.000000000000000      0.000000000000000
3.209000000000000      0.000000000000000      0.000000000000000
-1.604500000000000      2.779075520744263      0.000000000000000
0.000000000000000      0.000000000000000      5.211000000000000
}
Hamiltonian = DFTB {
  KPointsAndWeights = {
0.0 0.0 0.0 1.0
0.0357143 2.5692500002487514e-08 0.0 1.0
0.0714286 -3.521750000191009e-08 0.0 1.0
0.10714289999999999 -9.524999997213858e-09 0.0 1.0
0.1428571 -2.0435000000387723e-08 0.0 1.0
0.1785714 5.2575000148904795e-09 0.0 1.0
0.21428569999999997 -5.5652499984628074e-08 0.0 1.0
0.25 -2.9959999987019615e-08 0.0 1.0
0.2857143 -9.086999999003236e-08 0.0 1.0
0.3214286 -6.51775000242692e-08 0.0 1.0
0.35714289999999993 -1.2608749997077852e-07 0.0 1.0
0.3928571 -5.039499998740734e-08 0.0 1.0
0.42857139999999994 -1.1130499996925615e-07 0.0 1.0
0.46428569999999997 -8.561250000349299e-08 0.0 1.0
0.5 -1.4652250002068127e-07 0.0 1.0
0.47916669999999995 0.041666495987499955 0.0 1.0
0.4583333 0.0833331884975 0.0 1.0
0.4375 0.1249998310075 0.0 1.0
0.4166667 0.16666647351749994 0.0 1.0
0.3958333 0.20833316602749996 0.0 1.0
0.375 0.24999980853749995 0.0 1.0
0.3541667 0.2916664510475 0.0 1.0
0.3333333 0.33333314355749993 0.0 1.0
0.31481479999999995 0.31481464168250006 0.0 1.0
0.29629629999999996 0.29629605320499997 0.0 1.0
0.27777779999999996 0.27777755133 0.0 1.0
0.2592593 0.259259049455 0.0 1.0
0.2407407 0.24074059758 0.0 1.0
0.22222219999999998 0.22222209570500004 0.0 1.0
0.20370369999999996 0.20370359382999997 0.0 1.0
0.1851852 0.18518500535250002 0.0 1.0
0.16666669999999997 0.16666650347749995 0.0 1.0
0.1481481 0.14814805160249997 0.0 1.0
0.1296296 0.12962954972750002 0.0 1.0
0.11111109999999999 0.11111104785250002 0.0 1.0
0.0925926 0.0925925459775 0.0 1.0
0.0740741 0.07407404410250001 0.0 1.0
0.05555559999999999 0.05555545562500001 0.0 1.0
0.037037 0.03703700375 0.0 1.0
0.0185185 0.018518501875 0.0 1.0
0.0 0.0 0.0 1.0
0.0 0.0 0.055555515666 1.0
0.0 0.0 0.111111031332 1.0
0.0 0.0 0.166666709385 1.0
0.0 0.0 0.22222222505099998 1.0
0.0 0.0 0.27777774071699995 1.0
0.0 0.0 0.333333256383 1.0
0.0 0.0 0.38888877204899996 1.0
0.0 0.0 0.44444428771499994 1.0
0.0 0.0 0.49999996576800004 1.0
  }
  MaxAngularMomentum = {
    Mg = p
  }
  MaxSCCIterations = 1
  OrbitalResolvedSCC = No
  PolynomialRepulsive = SetForAll {
Yes
  }
  ReadInitialCharges = Yes
  SCC = Yes
  SCCTolerance = 1000000.0
  SlaterKosterFiles = Type2FileNames {
    Prefix = /home/inukai/tango/tests/1element/qe_fit_v2_Mg/
    Separator = "-"
    Suffix = ".skf"
    LowerCaseTypeName = No
  }
  OldSKInterpolation = No
  Mixer = Broyden {
    MixingParameter = 0.20000000000000001
    CachedIterations = -1
    InverseJacobiWeight = 1.0000000000000000E-002
    MinimalWeight = 1.0000000000000000
    MaximalWeight = 100000.00000000000
    WeightFactor = 1.0000000000000000E-002
  }
  DampXH = No
  EwaldParameter = 0.0000000000000000
  SpinPolarisation = {}
  ElectricField = {}
  Eigensolver = RelativelyRobust {}
  Filling = Fermi {
    Temperature = 0.0000000000000000
    IndependentKFilling = No
  }
  Charge = 0.0000000000000000
  Dispersion = {}
  ThirdOrder = No
  ThirdOrderFull = No
  Differentiation = FiniteDiff {
    Delta = 1.2207031250000000E-004
  }
  ForceEvaluation = "Traditional"
}
Options = {
  WriteResultsTag = Yes
  WriteAutotestTag = No
  WriteDetailedXML = No
  WriteDetailedOut = Yes
  RestartFrequency = 20
  RandomSeed = 0
  WriteHS = No
  WriteRealHS = No
  MinimiseMemoryUsage = No
  ShowFoldedCoords = No
}
ParserOptions = {
  IgnoreUnprocessedNodes = Yes
  ParserVersion = 5
  WriteHSDInput = Yes
  WriteXMLInput = No
  StopAfterParsing = No
}
Driver = {}
ExcitedState = {}
Analysis = {
  ProjectStates = {}
  MullikenAnalysis = Yes
  AtomResolvedEnergies = No
  WriteEigenvectors = No
  WriteBandOut = Yes
  CalculateForces = No
}
