Geometry = GenFormat {
1  S
Cl
1      1      0.000000000000000      0.000000000000000      0.000000000000000
0.000000000000000      0.000000000000000      0.000000000000000
-1.747000000000000      1.747000000000000      1.747000000000000
1.747000000000000     -1.747000000000000      1.747000000000000
1.747000000000000      1.747000000000000     -1.747000000000000
}
Hamiltonian = DFTB {
  KPointsAndWeights = {
0.0 0.0 0.0 1.0
0.035714310301801055 -0.035714310301801055 0.035714310301801055 1.0
0.0714285628685752 -0.0714285628685752 0.0714285628685752 1.0
0.10714287317037624 -0.10714287317037624 0.10714287317037624 1.0
0.1428571257371504 -0.1428571257371504 0.1428571257371504 1.0
0.17857143603895143 -0.17857143603895143 0.17857143603895143 1.0
0.21428568860572555 -0.21428568860572555 0.21428568860572555 1.0
0.2499999989075266 -0.2499999989075266 0.2499999989075266 1.0
0.2857143092093277 -0.2857143092093277 0.2857143092093277 1.0
0.3214285617761018 -0.3214285617761018 0.3214285617761018 1.0
0.35714287207790285 -0.35714287207790285 0.35714287207790285 1.0
0.392857124644677 -0.392857124644677 0.392857124644677 1.0
0.4285714349464781 -0.4285714349464781 0.4285714349464781 1.0
0.4642856875132522 -0.4642856875132522 0.4642856875132522 1.0
0.4999999978150532 -0.4999999978150532 0.4999999978150532 1.0
0.44999996339253173 -0.44999996339253173 0.4999999978150532 1.0
0.40000004444006415 -0.40000004444006415 0.4999999978150533 1.0
0.35000001001754266 -0.35000001001754266 0.4999999978150533 1.0
0.2999999755950212 -0.2999999755950212 0.4999999978150533 1.0
0.24999999890752664 -0.24999999890752664 0.5000000555500801 1.0
0.20000002222003205 -0.20000002222003205 0.4999999978150533 1.0
0.14999998779751056 -0.14999998779751056 0.4999999978150533 1.0
0.09999995337498914 -0.09999995337498914 0.4999999978150533 1.0
0.05000003442252148 -0.05000003442252148 0.4999999978150532 1.0
8.853852074648811e-18 -8.853852074648811e-18 0.4999999978150532 1.0
-6.856382497512055e-18 6.856382497512055e-18 0.4545454420618617 1.0
8.302420704332266e-18 -8.302420704332266e-18 0.4090908863086702 1.0
-1.1878272554529156e-17 1.1878272554529156e-17 0.36363633055547856 1.0
3.280530647315164e-18 -3.280530647315164e-18 0.31818177480228704 1.0
7.695856188066134e-19 -7.695856188066134e-19 0.27272721904909547 1.0
-5.115023087810118e-18 5.115023087810118e-18 0.22727277876595775 1.0
-7.625968116318668e-18 7.625968116318668e-18 0.1818182230127662 1.0
-1.3020390296507836e-18 1.3020390296507836e-18 0.13636366725957466 1.0
-3.812984058159334e-18 3.812984058159334e-18 0.0909091115063831 1.0
-1.906492029079667e-18 1.906492029079667e-18 0.04545455575319155 1.0
0.0 0.0 0.0 1.0
0.017857155150900528 0.017857155150900528 0.017857155150900528 1.0
0.035714310301801055 0.035714310301801055 0.035714310301801055 1.0
0.05357140771767466 0.05357140771767467 0.05357140771767466 1.0
0.0714285628685752 0.0714285628685752 0.0714285628685752 1.0
0.08928571801947571 0.08928571801947571 0.08928571801947571 1.0
0.10714287317037624 0.10714287317037625 0.10714287317037624 1.0
0.12500002832127677 0.12500002832127677 0.12500002832127677 1.0
0.1428571257371504 0.1428571257371504 0.1428571257371504 1.0
0.1607142808880509 0.1607142808880509 0.1607142808880509 1.0
0.17857143603895143 0.17857143603895143 0.17857143603895143 1.0
0.19642859118985193 0.19642859118985195 0.19642859118985193 1.0
0.21428568860572555 0.21428568860572558 0.21428568860572555 1.0
0.2321428437566261 0.23214284375662605 0.2321428437566261 1.0
0.2499999989075266 0.24999999890752658 0.2499999989075266 1.0
  }
  MaxAngularMomentum = {
    Cl = d
  }
  MaxSCCIterations = 1
  OrbitalResolvedSCC = No
  PolynomialRepulsive = SetForAll {
Yes
  }
  ReadInitialCharges = Yes
  SCC = Yes
  SCCTolerance = 1000000.0
  SlaterKosterFiles = Type2FileNames {
    Prefix = /home/inukai/tango/tests/1element/qe_fit_v2_Cl/
    Separator = "-"
    Suffix = ".skf"
    LowerCaseTypeName = No
  }
  OldSKInterpolation = No
  Mixer = Broyden {
    MixingParameter = 0.20000000000000001
    CachedIterations = -1
    InverseJacobiWeight = 1.0000000000000000E-002
    MinimalWeight = 1.0000000000000000
    MaximalWeight = 100000.00000000000
    WeightFactor = 1.0000000000000000E-002
  }
  DampXH = No
  EwaldParameter = 0.0000000000000000
  SpinPolarisation = {}
  ElectricField = {}
  Eigensolver = RelativelyRobust {}
  Filling = Fermi {
    Temperature = 0.0000000000000000
    IndependentKFilling = No
  }
  Charge = 0.0000000000000000
  Dispersion = {}
  ThirdOrder = No
  ThirdOrderFull = No
  Differentiation = FiniteDiff {
    Delta = 1.2207031250000000E-004
  }
  ForceEvaluation = "Traditional"
}
Options = {
  WriteResultsTag = Yes
  WriteAutotestTag = No
  WriteDetailedXML = No
  WriteDetailedOut = Yes
  RestartFrequency = 20
  RandomSeed = 0
  WriteHS = No
  WriteRealHS = No
  MinimiseMemoryUsage = No
  ShowFoldedCoords = No
}
ParserOptions = {
  IgnoreUnprocessedNodes = Yes
  ParserVersion = 5
  WriteHSDInput = Yes
  WriteXMLInput = No
  StopAfterParsing = No
}
Driver = {}
ExcitedState = {}
Analysis = {
  ProjectStates = {}
  MullikenAnalysis = Yes
  AtomResolvedEnergies = No
  WriteEigenvectors = No
  WriteBandOut = Yes
  CalculateForces = No
}
