&CONTROL
   calculation      = 'bands'
   verbosity        = 'high'
   restart_mode     = 'restart'
   tstress          = .true.
   tprnfor          = .true.
   disk_io          = 'low'
/
&SYSTEM
   ecutwfc          = 40.0
   ecutrho          = 200.0
   occupations      = 'smearing'
   degauss          = 0.001
   smearing         = 'gaussian'
   input_dft        = 'PBE'
   ntyp             = 1
   nat              = 1
   ibrav            = 0
/
&ELECTRONS
   electron_maxstep = 250
   scf_must_converge = .false.
   conv_thr         = 1e-07
   mixing_beta      = 0.1
/
&IONS
/
&CELL
/

ATOMIC_SPECIES
Cl 35.45 cl_pbe_v1.4.uspp.F.UPF

K_POINTS crystal_b
50
0.00000000000000 0.00000000000000 0.00000000000000 0
0.03571428571429 -0.03571428571429 0.03571428571429 0
0.07142857142857 -0.07142857142857 0.07142857142857 0
0.10714285714286 -0.10714285714286 0.10714285714286 0
0.14285714285714 -0.14285714285714 0.14285714285714 0
0.17857142857143 -0.17857142857143 0.17857142857143 0
0.21428571428571 -0.21428571428571 0.21428571428571 0
0.25000000000000 -0.25000000000000 0.25000000000000 0
0.28571428571429 -0.28571428571429 0.28571428571429 0
0.32142857142857 -0.32142857142857 0.32142857142857 0
0.35714285714286 -0.35714285714286 0.35714285714286 0
0.39285714285714 -0.39285714285714 0.39285714285714 0
0.42857142857143 -0.42857142857143 0.42857142857143 0
0.46428571428571 -0.46428571428571 0.46428571428571 0
0.50000000000000 -0.50000000000000 0.50000000000000 0
0.45000000000000 -0.45000000000000 0.50000000000000 0
0.40000000000000 -0.40000000000000 0.50000000000000 0
0.35000000000000 -0.35000000000000 0.50000000000000 0
0.30000000000000 -0.30000000000000 0.50000000000000 0
0.25000000000000 -0.25000000000000 0.50000000000000 0
0.20000000000000 -0.20000000000000 0.50000000000000 0
0.15000000000000 -0.15000000000000 0.50000000000000 0
0.10000000000000 -0.10000000000000 0.50000000000000 0
0.05000000000000 -0.05000000000000 0.50000000000000 0
0.00000000000000 0.00000000000000 0.50000000000000 0
0.00000000000000 0.00000000000000 0.45454545454545 0
0.00000000000000 0.00000000000000 0.40909090909091 0
0.00000000000000 0.00000000000000 0.36363636363636 0
0.00000000000000 0.00000000000000 0.31818181818182 0
0.00000000000000 0.00000000000000 0.27272727272727 0
0.00000000000000 0.00000000000000 0.22727272727273 0
0.00000000000000 0.00000000000000 0.18181818181818 0
0.00000000000000 0.00000000000000 0.13636363636364 0
0.00000000000000 0.00000000000000 0.09090909090909 0
0.00000000000000 0.00000000000000 0.04545454545455 0
0.00000000000000 0.00000000000000 0.00000000000000 0
0.01785714285714 0.01785714285714 0.01785714285714 0
0.03571428571429 0.03571428571429 0.03571428571429 0
0.05357142857143 0.05357142857143 0.05357142857143 0
0.07142857142857 0.07142857142857 0.07142857142857 0
0.08928571428571 0.08928571428571 0.08928571428571 0
0.10714285714286 0.10714285714286 0.10714285714286 0
0.12500000000000 0.12500000000000 0.12500000000000 0
0.14285714285714 0.14285714285714 0.14285714285714 0
0.16071428571429 0.16071428571429 0.16071428571429 0
0.17857142857143 0.17857142857143 0.17857142857143 0
0.19642857142857 0.19642857142857 0.19642857142857 0
0.21428571428571 0.21428571428571 0.21428571428571 0
0.23214285714286 0.23214285714286 0.23214285714286 0
0.25000000000000 0.25000000000000 0.25000000000000 0

CELL_PARAMETERS angstrom
-1.74700000000000 1.74700000000000 1.74700000000000
1.74700000000000 -1.74700000000000 1.74700000000000
1.74700000000000 1.74700000000000 -1.74700000000000

ATOMIC_POSITIONS angstrom
Cl 0.0000000000 0.0000000000 0.0000000000 

