Geometry = GenFormat { 
    <<< "geo_end.gen" 
} 
 
Hamiltonian = DFTB{ 
   KPointsAndWeights = { 
      0.0 0.0 0.0 1.0 
      0.0 0.1 0.0 1.0 
      0.0 0.2 0.0 1.0 
      0.0 0.30000000000000004 0.0 1.0 
      0.0 0.4 0.0 1.0 
      0.0 0.5 0.0 1.0 
      0.1 0.5 0.0 1.0 
      0.2 0.5 0.0 1.0 
      0.30000000000000004 0.5 0.0 1.0 
      0.4 0.5 0.0 1.0 
      0.5 0.5 0.0 1.0 
      0.4285714285714286 0.4285714285714286 0.0 1.0 
      0.35714285714285715 0.35714285714285715 0.0 1.0 
      0.2857142857142857 0.2857142857142857 0.0 1.0 
      0.2142857142857143 0.2142857142857143 0.0 1.0 
      0.1428571428571429 0.1428571428571429 0.0 1.0 
      0.07142857142857145 0.07142857142857145 0.0 1.0 
      0.0 0.0 0.0 1.0 
      0.0 0.0 0.16666666666666666 1.0 
      0.0 0.0 0.3333333333333333 1.0 
      0.0 0.0 0.5 1.0 
      0.0 0.1 0.5 1.0 
      0.0 0.2 0.5 1.0 
      0.0 0.30000000000000004 0.5 1.0 
      0.0 0.4 0.5 1.0 
      0.0 0.5 0.5 1.0 
      0.08333333333333333 0.5 0.5 1.0 
      0.16666666666666666 0.5 0.5 1.0 
      0.25 0.5 0.5 1.0 
      0.3333333333333333 0.5 0.5 1.0 
      0.41666666666666663 0.5 0.5 1.0 
      0.5 0.5 0.5 1.0 
      0.4444444444444444 0.4444444444444444 0.5 1.0 
      0.3888888888888889 0.3888888888888889 0.5 1.0 
      0.33333333333333337 0.33333333333333337 0.5 1.0 
      0.2777777777777778 0.2777777777777778 0.5 1.0 
      0.2222222222222222 0.2222222222222222 0.5 1.0 
      0.16666666666666669 0.16666666666666669 0.5 1.0 
      0.11111111111111116 0.11111111111111116 0.5 1.0 
      0.05555555555555558 0.05555555555555558 0.5 1.0 
      0.0 0.0 0.5 1.0 
      0.0 0.5 0.0 1.0 
      0.0 0.5 0.125 1.0 
      0.0 0.5 0.25 1.0 
      0.0 0.5 0.375 1.0 
      0.0 0.5 0.5 1.0 
      0.5 0.5 0.0 1.0 
      0.5 0.5 0.16666666666666666 1.0 
      0.5 0.5 0.3333333333333333 1.0 
      0.5 0.5 0.5 1.0 
   } 
   MaxAngularMomentum = { 
      In = d 
   } 
   MaxSCCIterations = 1 
   OrbitalResolvedSCC = No 
   PolynomialRepulsive = SetForAll {Yes} 
   ReadInitialCharges = Yes 
   SCC = Yes 
   SCCTolerance = 1000000.0 
   SlaterKosterFiles = Type2FileNames{ 
      Prefix = /home/inukai/tango/tests/1element/gpaw_fit_v3_In/ 
      Separator = "-" 
      Suffix = ".skf" 
      } 
   } 
Options { 
   WriteResultsTag = Yes 
} 
ParserOptions { 
   IgnoreUnprocessedNodes = Yes  
} 
