Geometry = GenFormat {
2  S
In
1      1      0.000000000000000      0.000000000000000      0.000000000000000
2      1      1.649204500000000      1.649204500000000      2.531279000000000
0.000000000000000      0.000000000000000      0.000000000000000
3.298409000000000      0.000000000000000      0.000000000000000
0.000000000000000      3.298409000000000      0.000000000000000
0.000000000000000      0.000000000000000      5.062558000000000
}
Hamiltonian = DFTB {
  KPointsAndWeights = {
0.0 0.0 0.0 1.0
0.0 0.1 0.0 1.0
0.0 0.2 0.0 1.0
0.0 0.30000000000000004 0.0 1.0
0.0 0.4 0.0 1.0
0.0 0.5 0.0 1.0
0.1 0.5 0.0 1.0
0.2 0.5 0.0 1.0
0.30000000000000004 0.5 0.0 1.0
0.4 0.5 0.0 1.0
0.5 0.5 0.0 1.0
0.4285714285714286 0.4285714285714286 0.0 1.0
0.35714285714285715 0.35714285714285715 0.0 1.0
0.2857142857142857 0.2857142857142857 0.0 1.0
0.2142857142857143 0.2142857142857143 0.0 1.0
0.1428571428571429 0.1428571428571429 0.0 1.0
0.07142857142857145 0.07142857142857145 0.0 1.0
0.0 0.0 0.0 1.0
0.0 0.0 0.16666666666666666 1.0
0.0 0.0 0.3333333333333333 1.0
0.0 0.0 0.5 1.0
0.0 0.1 0.5 1.0
0.0 0.2 0.5 1.0
0.0 0.30000000000000004 0.5 1.0
0.0 0.4 0.5 1.0
0.0 0.5 0.5 1.0
0.08333333333333333 0.5 0.5 1.0
0.16666666666666666 0.5 0.5 1.0
0.25 0.5 0.5 1.0
0.3333333333333333 0.5 0.5 1.0
0.41666666666666663 0.5 0.5 1.0
0.5 0.5 0.5 1.0
0.4444444444444444 0.4444444444444444 0.5 1.0
0.3888888888888889 0.3888888888888889 0.5 1.0
0.33333333333333337 0.33333333333333337 0.5 1.0
0.2777777777777778 0.2777777777777778 0.5 1.0
0.2222222222222222 0.2222222222222222 0.5 1.0
0.16666666666666669 0.16666666666666669 0.5 1.0
0.11111111111111116 0.11111111111111116 0.5 1.0
0.05555555555555558 0.05555555555555558 0.5 1.0
0.0 0.0 0.5 1.0
0.0 0.5 0.0 1.0
0.0 0.5 0.125 1.0
0.0 0.5 0.25 1.0
0.0 0.5 0.375 1.0
0.0 0.5 0.5 1.0
0.5 0.5 0.0 1.0
0.5 0.5 0.16666666666666666 1.0
0.5 0.5 0.3333333333333333 1.0
0.5 0.5 0.5 1.0
  }
  MaxAngularMomentum = {
    In = d
  }
  MaxSCCIterations = 1
  OrbitalResolvedSCC = No
  PolynomialRepulsive = SetForAll {
Yes
  }
  ReadInitialCharges = Yes
  SCC = Yes
  SCCTolerance = 1000000.0
  SlaterKosterFiles = Type2FileNames {
    Prefix = /home/inukai/tango/tests/1element/gpaw_fit_v3_In/
    Separator = "-"
    Suffix = ".skf"
    LowerCaseTypeName = No
  }
  OldSKInterpolation = No
  Mixer = Broyden {
    MixingParameter = 0.20000000000000001
    CachedIterations = -1
    InverseJacobiWeight = 1.0000000000000000E-002
    MinimalWeight = 1.0000000000000000
    MaximalWeight = 100000.00000000000
    WeightFactor = 1.0000000000000000E-002
  }
  DampXH = No
  EwaldParameter = 0.0000000000000000
  SpinPolarisation = {}
  ElectricField = {}
  Eigensolver = RelativelyRobust {}
  Filling = Fermi {
    Temperature = 0.0000000000000000
    IndependentKFilling = No
  }
  Charge = 0.0000000000000000
  Dispersion = {}
  ThirdOrder = No
  ThirdOrderFull = No
  Differentiation = FiniteDiff {
    Delta = 1.2207031250000000E-004
  }
  ForceEvaluation = "Traditional"
}
Options = {
  WriteResultsTag = Yes
  WriteAutotestTag = No
  WriteDetailedXML = No
  WriteDetailedOut = Yes
  RestartFrequency = 20
  RandomSeed = 0
  WriteHS = No
  WriteRealHS = No
  MinimiseMemoryUsage = No
  ShowFoldedCoords = No
}
ParserOptions = {
  IgnoreUnprocessedNodes = Yes
  ParserVersion = 5
  WriteHSDInput = Yes
  WriteXMLInput = No
  StopAfterParsing = No
}
Driver = {}
ExcitedState = {}
Analysis = {
  ProjectStates = {}
  MullikenAnalysis = Yes
  AtomResolvedEnergies = No
  WriteEigenvectors = No
  WriteBandOut = Yes
  CalculateForces = No
}
