Geometry = GenFormat { 
    <<< "geo_end.gen" 
} 
 
Hamiltonian = DFTB{ 
   KPointsAndWeights = { 
      0.0 0.0 0.0 1.0 
      0.03571431030180106 -0.03571431030180106 0.03571431030180106 1.0 
      0.0714285628685752 -0.0714285628685752 0.0714285628685752 1.0 
      0.10714287317037625 -0.10714287317037625 0.10714287317037625 1.0 
      0.1428571257371504 -0.1428571257371504 0.1428571257371504 1.0 
      0.17857143603895145 -0.17857143603895145 0.17857143603895145 1.0 
      0.21428568860572558 -0.21428568860572558 0.21428568860572558 1.0 
      0.2499999989075266 -0.2499999989075266 0.2499999989075266 1.0 
      0.2857143092093277 -0.2857143092093277 0.2857143092093277 1.0 
      0.32142856177610185 -0.32142856177610185 0.32142856177610185 1.0 
      0.3571428720779029 -0.3571428720779029 0.3571428720779029 1.0 
      0.392857124644677 -0.392857124644677 0.392857124644677 1.0 
      0.4285714349464781 -0.4285714349464781 0.4285714349464781 1.0 
      0.4642856875132522 -0.4642856875132522 0.4642856875132522 1.0 
      0.4999999978150532 -0.4999999978150532 0.4999999978150532 1.0 
      0.4499999633925318 -0.4499999633925318 0.4999999978150533 1.0 
      0.40000004444006415 -0.40000004444006415 0.4999999978150533 1.0 
      0.3500000100175427 -0.3500000100175427 0.4999999978150534 1.0 
      0.2999999755950212 -0.2999999755950212 0.4999999978150533 1.0 
      0.24999999890752672 -0.24999999890752672 0.5000000555500803 1.0 
      0.2000000222200321 -0.2000000222200321 0.4999999978150534 1.0 
      0.14999998779751056 -0.14999998779751056 0.4999999978150533 1.0 
      0.09999995337498918 -0.09999995337498918 0.4999999978150534 1.0 
      0.05000003442252152 -0.05000003442252152 0.4999999978150533 1.0 
      -1.2704297948770755e-17 1.2704297948770755e-17 0.4999999978150532 1.0 
      -1.5826020905774774e-17 1.5826020905774774e-17 0.4545454420618617 1.0 
      1.6391752597926948e-17 -1.6391752597926948e-17 0.40909088630867024 1.0 
      1.233351714300948e-17 -1.233351714300948e-17 0.36363633055547867 1.0 
      -8.457954044347409e-18 8.457954044347409e-18 0.3181817748022871 1.0 
      5.153558731087994e-18 -5.153558731087994e-18 0.2727272190490955 1.0 
      7.484040484075699e-19 -7.484040484075699e-19 0.2272727787659578 1.0 
      -2.8415751575531734e-18 2.8415751575531734e-18 0.18181822301276623 1.0 
      2.1691916271841567e-18 -2.1691916271841567e-18 0.1363636672595747 1.0 
      -1.4207875787765867e-18 1.4207875787765867e-18 0.09090911150638312 1.0 
      -7.103937893882933e-19 7.103937893882933e-19 0.04545455575319156 1.0 
      0.0 0.0 0.0 1.0 
      0.01785715515090053 0.017857155150900528 0.01785715515090053 1.0 
      0.03571431030180106 0.035714310301801055 0.03571431030180106 1.0 
      0.05357140771767466 0.05357140771767466 0.05357140771767466 1.0 
      0.0714285628685752 0.0714285628685752 0.0714285628685752 1.0 
      0.08928571801947573 0.08928571801947573 0.08928571801947573 1.0 
      0.10714287317037625 0.10714287317037625 0.10714287317037625 1.0 
      0.12500002832127677 0.12500002832127677 0.12500002832127677 1.0 
      0.1428571257371504 0.1428571257371504 0.1428571257371504 1.0 
      0.16071428088805093 0.1607142808880509 0.16071428088805093 1.0 
      0.17857143603895145 0.17857143603895145 0.17857143603895145 1.0 
      0.19642859118985198 0.19642859118985195 0.19642859118985198 1.0 
      0.21428568860572558 0.21428568860572555 0.21428568860572558 1.0 
      0.2321428437566261 0.2321428437566261 0.2321428437566261 1.0 
      0.2499999989075266 0.24999999890752664 0.2499999989075266 1.0 
   } 
   MaxAngularMomentum = { 
      Hg = f 
   } 
   MaxSCCIterations = 1 
   OrbitalResolvedSCC = No 
   PolynomialRepulsive = SetForAll {Yes} 
   ReadInitialCharges = Yes 
   SCC = Yes 
   SCCTolerance = 1000000.0 
   SlaterKosterFiles = Type2FileNames{ 
      Prefix = /home/inukai/tango/tests/1element/qe_fit_v2_Hg/ 
      Separator = "-" 
      Suffix = ".skf" 
      } 
   } 
Options { 
   WriteResultsTag = Yes 
} 
ParserOptions { 
   IgnoreUnprocessedNodes = Yes  
} 
